** ----------------------------------------------------------------
** BOUNDARY CONDITIONS
**
*Boundary
V1,1
V1,2
V1,3
V2,2
H1,1
V4,3
**
**-------------------------------------------------------------------
*Amplitude, name=MyAmp
0, 0, 62.5, 1, 125, 0, 187.5, -1, 250, 0, 
312.5, 1, 375, 0, 437.5, -1, 500, 0,
562.5, 1, 625, 0, 687.5, -1, 750, 0
** STEP: Cyclic Loading
**
*Step, name=Cyclic Loading, nlgeom=YES, inc=500000, unsymm=YES, solver=ITERATIVE
*Static
1, 750, 1e-5, 0.5
**
**
*CONTROLS, PARAMETER=TIME INCREMENTATION
35, 50, 9, 50, 28, 5, 12, 45
**
*CONTROLS, PARAMETERS=LINE SEARCH
10
**Originally that was SOLVER CONTROL
*SOLVER CONTROL
1e-5,200,
**
** BOUNDARY CONDITIONS
**
** LOADS
**
** Name: Load Type: Stress BC
*Cload, amplitude=MyAmp
V2,1, -0.3752356825122646
V4,2, -0.5460770134887019
H1,3, 53.75659709123606
H1,2, 0.0
V2,3, 0.0
V4,1, 0.0
**
** OUTPUT REQUESTS
**
**
** FIELD OUTPUT: F-Output-1
**
*Output, field
*Node Output
U,RF,CF,COORD
*Element Output, directions=YES
S,LE
SDV156,SDV157,SDV158
SDV159,SDV160,SDV161
** HISTORY OUTPUT: H-Output-1
**
**Output, history, variable=PRESELECT
*End Step
