**** X-DIR 
*Equation 
4 
1103,1,1 
1128,1,-1 
174,1,-1 
191,1,1 
*Equation 
4 
662,1,1 
692,1,-1 
174,1,-1 
191,1,1 
*Equation 
4 
1203,1,1 
1144,1,-1 
174,1,-1 
191,1,1 
*Equation 
4 
658,1,1 
682,1,-1 
174,1,-1 
191,1,1 
*Equation 
4 
1098,1,1 
1124,1,-1 
174,1,-1 
191,1,1 
*Equation 
4 
643,1,1 
677,1,-1 
174,1,-1 
191,1,1 
*Equation 
4 
1085,1,1 
1120,1,-1 
174,1,-1 
191,1,1 
*Equation 
4 
633,1,1 
669,1,-1 
174,1,-1 
191,1,1 
*Equation 
4 
1077,1,1 
1116,1,-1 
174,1,-1 
191,1,1 
*Equation 
4 
558,1,1 
584,1,-1 
174,1,-1 
191,1,1 
*Equation 
4 
148,1,1 
162,1,-1 
174,1,-1 
191,1,1 
*Equation 
4 
610,1,1 
594,1,-1 
174,1,-1 
191,1,1 
*Equation 
4 
147,1,1 
158,1,-1 
174,1,-1 
191,1,1 
*Equation 
4 
551,1,1 
576,1,-1 
174,1,-1 
191,1,1 
*Equation 
4 
142,1,1 
156,1,-1 
174,1,-1 
191,1,1 
*Equation 
4 
536,1,1 
571,1,-1 
174,1,-1 
191,1,1 
*Equation 
4 
137,1,1 
151,1,-1 
174,1,-1 
191,1,1 
*Equation 
4 
524,1,1 
567,1,-1 
174,1,-1 
191,1,1 
*Equation 
4 
1007,1,1 
1025,1,-1 
174,1,-1 
191,1,1 
*Equation 
4 
554,1,1 
583,1,-1 
174,1,-1 
191,1,1 
*Equation 
4 
1061,1,1 
1039,1,-1 
174,1,-1 
191,1,1 
*Equation 
4 
550,1,1 
575,1,-1 
174,1,-1 
191,1,1 
*Equation 
4 
1002,1,1 
1020,1,-1 
174,1,-1 
191,1,1 
*Equation 
4 
535,1,1 
570,1,-1 
174,1,-1 
191,1,1 
*Equation 
4 
989,1,1 
1016,1,-1 
174,1,-1 
191,1,1 
*Equation 
4 
523,1,1 
560,1,-1 
174,1,-1 
191,1,1 
*Equation 
4 
980,1,1 
1013,1,-1 
174,1,-1 
191,1,1 
*Equation 
4 
454,1,1 
474,1,-1 
174,1,-1 
191,1,1 
*Equation 
4 
110,1,1 
120,1,-1 
174,1,-1 
191,1,1 
*Equation 
4 
611,1,1 
595,1,-1 
174,1,-1 
191,1,1 
*Equation 
4 
107,1,1 
117,1,-1 
174,1,-1 
191,1,1 
*Equation 
4 
444,1,1 
469,1,-1 
174,1,-1 
191,1,1 
*Equation 
4 
101,1,1 
115,1,-1 
174,1,-1 
191,1,1 
*Equation 
4 
428,1,1 
464,1,-1 
174,1,-1 
191,1,1 
*Equation 
4 
96,1,1 
111,1,-1 
174,1,-1 
191,1,1 
*Equation 
4 
416,1,1 
462,1,-1 
174,1,-1 
191,1,1 
*Equation 
4 
918,1,1 
933,1,-1 
174,1,-1 
191,1,1 
*Equation 
4 
451,1,1 
475,1,-1 
174,1,-1 
191,1,1 
*Equation 
4 
1074,1,1 
1141,1,-1 
174,1,-1 
191,1,1 
*Equation 
4 
445,1,1 
468,1,-1 
174,1,-1 
191,1,1 
*Equation 
4 
911,1,1 
929,1,-1 
174,1,-1 
191,1,1 
*Equation 
4 
429,1,1 
463,1,-1 
174,1,-1 
191,1,1 
*Equation 
4 
898,1,1 
925,1,-1 
174,1,-1 
191,1,1 
*Equation 
4 
417,1,1 
455,1,-1 
174,1,-1 
191,1,1 
*Equation 
4 
889,1,1 
923,1,-1 
174,1,-1 
191,1,1 
*Equation 
4 
303,1,1 
335,1,-1 
174,1,-1 
191,1,1 
*Equation 
4 
48,1,1 
68,1,-1 
174,1,-1 
191,1,1 
*Equation 
4 
359,1,1 
488,1,-1 
174,1,-1 
191,1,1 
*Equation 
4 
42,1,1 
62,1,-1 
174,1,-1 
191,1,1 
*Equation 
4 
288,1,1 
327,1,-1 
174,1,-1 
191,1,1 
*Equation 
4 
30,1,1 
58,1,-1 
174,1,-1 
191,1,1 
*Equation 
4 
262,1,1 
319,1,-1 
174,1,-1 
191,1,1 
*Equation 
4 
20,1,1 
51,1,-1 
174,1,-1 
191,1,1 
*Equation 
4 
243,1,1 
315,1,-1 
174,1,-1 
191,1,1 
*Equation 
4 
804,1,1 
823,1,-1 
174,1,-1 
191,1,1 
*Equation 
4 
299,1,1 
336,1,-1 
174,1,-1 
191,1,1 
*Equation 
4 
846,1,1 
949,1,-1 
174,1,-1 
191,1,1 
*Equation 
4 
289,1,1 
326,1,-1 
174,1,-1 
191,1,1 
*Equation 
4 
796,1,1 
818,1,-1 
174,1,-1 
191,1,1 
*Equation 
4 
263,1,1 
318,1,-1 
174,1,-1 
191,1,1 
*Equation 
4 
780,1,1 
813,1,-1 
174,1,-1 
191,1,1 
*Equation 
4 
244,1,1 
306,1,-1 
174,1,-1 
191,1,1 
*Equation 
4 
769,1,1 
810,1,-1 
174,1,-1 
191,1,1 
*Equation 
4 
304,1,1 
333,1,-1 
174,1,-1 
191,1,1 
*Equation 
4 
47,1,1 
65,1,-1 
174,1,-1 
191,1,1 
*Equation 
4 
360,1,1 
398,1,-1 
174,1,-1 
191,1,1 
*Equation 
4 
41,1,1 
61,1,-1 
174,1,-1 
191,1,1 
*Equation 
4 
287,1,1 
325,1,-1 
174,1,-1 
191,1,1 
*Equation 
4 
29,1,1 
57,1,-1 
174,1,-1 
191,1,1 
*Equation 
4 
261,1,1 
317,1,-1 
174,1,-1 
191,1,1 
*Equation 
4 
17,1,1 
50,1,-1 
174,1,-1 
191,1,1 
*Equation 
4 
241,1,1 
316,1,-1 
174,1,-1 
191,1,1 
*Equation 
4 
1186,1,1 
1163,1,-1 
174,1,-1 
191,1,1 
*Equation 
4 
496,1,1 
396,1,-1 
174,1,-1 
191,1,1 
*Equation 
4 
965,1,1 
876,1,-1 
174,1,-1 
191,1,1 
*Equation 
4 
499,1,1 
394,1,-1 
174,1,-1 
191,1,1 
*Equation 
4 
1189,1,1 
1166,1,-1 
174,1,-1 
191,1,1 
*Equation 
4 
745,1,1 
728,1,-1 
174,1,-1 
191,1,1 
*Equation 
4 
1196,1,1 
1169,1,-1 
174,1,-1 
191,1,1 
*Equation 
4 
750,1,1 
731,1,-1 
174,1,-1 
191,1,1 
*Equation 
4 
1201,1,1 
1172,1,-1 
174,1,-1 
191,1,1 
**** 
**** Y-DIR 
*Equation 
4 
1103,2, 1 
1128,2,-1 
174,2,-1 
191,2, 1 
*Equation 
4 
662,2, 1 
692,2,-1 
174,2,-1 
191,2, 1 
*Equation 
4 
1203,2, 1 
1144,2,-1 
174,2,-1 
191,2, 1 
*Equation 
4 
658,2, 1 
682,2,-1 
174,2,-1 
191,2, 1 
*Equation 
4 
1098,2, 1 
1124,2,-1 
174,2,-1 
191,2, 1 
*Equation 
4 
643,2, 1 
677,2,-1 
174,2,-1 
191,2, 1 
*Equation 
4 
1085,2, 1 
1120,2,-1 
174,2,-1 
191,2, 1 
*Equation 
4 
633,2, 1 
669,2,-1 
174,2,-1 
191,2, 1 
*Equation 
4 
1077,2, 1 
1116,2,-1 
174,2,-1 
191,2, 1 
*Equation 
4 
558,2, 1 
584,2,-1 
174,2,-1 
191,2, 1 
*Equation 
4 
148,2, 1 
162,2,-1 
174,2,-1 
191,2, 1 
*Equation 
4 
610,2, 1 
594,2,-1 
174,2,-1 
191,2, 1 
*Equation 
4 
147,2, 1 
158,2,-1 
174,2,-1 
191,2, 1 
*Equation 
4 
551,2, 1 
576,2,-1 
174,2,-1 
191,2, 1 
*Equation 
4 
142,2, 1 
156,2,-1 
174,2,-1 
191,2, 1 
*Equation 
4 
536,2, 1 
571,2,-1 
174,2,-1 
191,2, 1 
*Equation 
4 
137,2, 1 
151,2,-1 
174,2,-1 
191,2, 1 
*Equation 
4 
524,2, 1 
567,2,-1 
174,2,-1 
191,2, 1 
*Equation 
4 
1007,2, 1 
1025,2,-1 
174,2,-1 
191,2, 1 
*Equation 
4 
554,2, 1 
583,2,-1 
174,2,-1 
191,2, 1 
*Equation 
4 
1061,2, 1 
1039,2,-1 
174,2,-1 
191,2, 1 
*Equation 
4 
550,2, 1 
575,2,-1 
174,2,-1 
191,2, 1 
*Equation 
4 
1002,2, 1 
1020,2,-1 
174,2,-1 
191,2, 1 
*Equation 
4 
535,2, 1 
570,2,-1 
174,2,-1 
191,2, 1 
*Equation 
4 
989,2, 1 
1016,2,-1 
174,2,-1 
191,2, 1 
*Equation 
4 
523,2, 1 
560,2,-1 
174,2,-1 
191,2, 1 
*Equation 
4 
980,2, 1 
1013,2,-1 
174,2,-1 
191,2, 1 
*Equation 
4 
454,2, 1 
474,2,-1 
174,2,-1 
191,2, 1 
*Equation 
4 
110,2, 1 
120,2,-1 
174,2,-1 
191,2, 1 
*Equation 
4 
611,2, 1 
595,2,-1 
174,2,-1 
191,2, 1 
*Equation 
4 
107,2, 1 
117,2,-1 
174,2,-1 
191,2, 1 
*Equation 
4 
444,2, 1 
469,2,-1 
174,2,-1 
191,2, 1 
*Equation 
4 
101,2, 1 
115,2,-1 
174,2,-1 
191,2, 1 
*Equation 
4 
428,2, 1 
464,2,-1 
174,2,-1 
191,2, 1 
*Equation 
4 
96,2, 1 
111,2,-1 
174,2,-1 
191,2, 1 
*Equation 
4 
416,2, 1 
462,2,-1 
174,2,-1 
191,2, 1 
*Equation 
4 
918,2, 1 
933,2,-1 
174,2,-1 
191,2, 1 
*Equation 
4 
451,2, 1 
475,2,-1 
174,2,-1 
191,2, 1 
*Equation 
4 
1074,2, 1 
1141,2,-1 
174,2,-1 
191,2, 1 
*Equation 
4 
445,2, 1 
468,2,-1 
174,2,-1 
191,2, 1 
*Equation 
4 
911,2, 1 
929,2,-1 
174,2,-1 
191,2, 1 
*Equation 
4 
429,2, 1 
463,2,-1 
174,2,-1 
191,2, 1 
*Equation 
4 
898,2, 1 
925,2,-1 
174,2,-1 
191,2, 1 
*Equation 
4 
417,2, 1 
455,2,-1 
174,2,-1 
191,2, 1 
*Equation 
4 
889,2, 1 
923,2,-1 
174,2,-1 
191,2, 1 
*Equation 
4 
303,2, 1 
335,2,-1 
174,2,-1 
191,2, 1 
*Equation 
4 
48,2, 1 
68,2,-1 
174,2,-1 
191,2, 1 
*Equation 
4 
359,2, 1 
488,2,-1 
174,2,-1 
191,2, 1 
*Equation 
4 
42,2, 1 
62,2,-1 
174,2,-1 
191,2, 1 
*Equation 
4 
288,2, 1 
327,2,-1 
174,2,-1 
191,2, 1 
*Equation 
4 
30,2, 1 
58,2,-1 
174,2,-1 
191,2, 1 
*Equation 
4 
262,2, 1 
319,2,-1 
174,2,-1 
191,2, 1 
*Equation 
4 
20,2, 1 
51,2,-1 
174,2,-1 
191,2, 1 
*Equation 
4 
243,2, 1 
315,2,-1 
174,2,-1 
191,2, 1 
*Equation 
4 
804,2, 1 
823,2,-1 
174,2,-1 
191,2, 1 
*Equation 
4 
299,2, 1 
336,2,-1 
174,2,-1 
191,2, 1 
*Equation 
4 
846,2, 1 
949,2,-1 
174,2,-1 
191,2, 1 
*Equation 
4 
289,2, 1 
326,2,-1 
174,2,-1 
191,2, 1 
*Equation 
4 
796,2, 1 
818,2,-1 
174,2,-1 
191,2, 1 
*Equation 
4 
263,2, 1 
318,2,-1 
174,2,-1 
191,2, 1 
*Equation 
4 
780,2, 1 
813,2,-1 
174,2,-1 
191,2, 1 
*Equation 
4 
244,2, 1 
306,2,-1 
174,2,-1 
191,2, 1 
*Equation 
4 
769,2, 1 
810,2,-1 
174,2,-1 
191,2, 1 
*Equation 
4 
304,2, 1 
333,2,-1 
174,2,-1 
191,2, 1 
*Equation 
4 
47,2, 1 
65,2,-1 
174,2,-1 
191,2, 1 
*Equation 
4 
360,2, 1 
398,2,-1 
174,2,-1 
191,2, 1 
*Equation 
4 
41,2, 1 
61,2,-1 
174,2,-1 
191,2, 1 
*Equation 
4 
287,2, 1 
325,2,-1 
174,2,-1 
191,2, 1 
*Equation 
4 
29,2, 1 
57,2,-1 
174,2,-1 
191,2, 1 
*Equation 
4 
261,2, 1 
317,2,-1 
174,2,-1 
191,2, 1 
*Equation 
4 
17,2, 1 
50,2,-1 
174,2,-1 
191,2, 1 
*Equation 
4 
241,2, 1 
316,2,-1 
174,2,-1 
191,2, 1 
*Equation 
4 
1186,2, 1 
1163,2,-1 
174,2,-1 
191,2, 1 
*Equation 
4 
496,2, 1 
396,2,-1 
174,2,-1 
191,2, 1 
*Equation 
4 
965,2, 1 
876,2,-1 
174,2,-1 
191,2, 1 
*Equation 
4 
499,2, 1 
394,2,-1 
174,2,-1 
191,2, 1 
*Equation 
4 
1189,2, 1 
1166,2,-1 
174,2,-1 
191,2, 1 
*Equation 
4 
745,2, 1 
728,2,-1 
174,2,-1 
191,2, 1 
*Equation 
4 
1196,2, 1 
1169,2,-1 
174,2,-1 
191,2, 1 
*Equation 
4 
750,2, 1 
731,2,-1 
174,2,-1 
191,2, 1 
*Equation 
4 
1201,2, 1 
1172,2,-1 
174,2,-1 
191,2, 1 
**** 
**** Z-DIR 
*Equation 
4 
1103,3, 1 
1128,3,-1 
174,3,-1 
191,3, 1 
*Equation 
4 
662,3, 1 
692,3,-1 
174,3,-1 
191,3, 1 
*Equation 
4 
1203,3, 1 
1144,3,-1 
174,3,-1 
191,3, 1 
*Equation 
4 
658,3, 1 
682,3,-1 
174,3,-1 
191,3, 1 
*Equation 
4 
1098,3, 1 
1124,3,-1 
174,3,-1 
191,3, 1 
*Equation 
4 
643,3, 1 
677,3,-1 
174,3,-1 
191,3, 1 
*Equation 
4 
1085,3, 1 
1120,3,-1 
174,3,-1 
191,3, 1 
*Equation 
4 
633,3, 1 
669,3,-1 
174,3,-1 
191,3, 1 
*Equation 
4 
1077,3, 1 
1116,3,-1 
174,3,-1 
191,3, 1 
*Equation 
4 
558,3, 1 
584,3,-1 
174,3,-1 
191,3, 1 
*Equation 
4 
148,3, 1 
162,3,-1 
174,3,-1 
191,3, 1 
*Equation 
4 
610,3, 1 
594,3,-1 
174,3,-1 
191,3, 1 
*Equation 
4 
147,3, 1 
158,3,-1 
174,3,-1 
191,3, 1 
*Equation 
4 
551,3, 1 
576,3,-1 
174,3,-1 
191,3, 1 
*Equation 
4 
142,3, 1 
156,3,-1 
174,3,-1 
191,3, 1 
*Equation 
4 
536,3, 1 
571,3,-1 
174,3,-1 
191,3, 1 
*Equation 
4 
137,3, 1 
151,3,-1 
174,3,-1 
191,3, 1 
*Equation 
4 
524,3, 1 
567,3,-1 
174,3,-1 
191,3, 1 
*Equation 
4 
1007,3, 1 
1025,3,-1 
174,3,-1 
191,3, 1 
*Equation 
4 
554,3, 1 
583,3,-1 
174,3,-1 
191,3, 1 
*Equation 
4 
1061,3, 1 
1039,3,-1 
174,3,-1 
191,3, 1 
*Equation 
4 
550,3, 1 
575,3,-1 
174,3,-1 
191,3, 1 
*Equation 
4 
1002,3, 1 
1020,3,-1 
174,3,-1 
191,3, 1 
*Equation 
4 
535,3, 1 
570,3,-1 
174,3,-1 
191,3, 1 
*Equation 
4 
989,3, 1 
1016,3,-1 
174,3,-1 
191,3, 1 
*Equation 
4 
523,3, 1 
560,3,-1 
174,3,-1 
191,3, 1 
*Equation 
4 
980,3, 1 
1013,3,-1 
174,3,-1 
191,3, 1 
*Equation 
4 
454,3, 1 
474,3,-1 
174,3,-1 
191,3, 1 
*Equation 
4 
110,3, 1 
120,3,-1 
174,3,-1 
191,3, 1 
*Equation 
4 
611,3, 1 
595,3,-1 
174,3,-1 
191,3, 1 
*Equation 
4 
107,3, 1 
117,3,-1 
174,3,-1 
191,3, 1 
*Equation 
4 
444,3, 1 
469,3,-1 
174,3,-1 
191,3, 1 
*Equation 
4 
101,3, 1 
115,3,-1 
174,3,-1 
191,3, 1 
*Equation 
4 
428,3, 1 
464,3,-1 
174,3,-1 
191,3, 1 
*Equation 
4 
96,3, 1 
111,3,-1 
174,3,-1 
191,3, 1 
*Equation 
4 
416,3, 1 
462,3,-1 
174,3,-1 
191,3, 1 
*Equation 
4 
918,3, 1 
933,3,-1 
174,3,-1 
191,3, 1 
*Equation 
4 
451,3, 1 
475,3,-1 
174,3,-1 
191,3, 1 
*Equation 
4 
1074,3, 1 
1141,3,-1 
174,3,-1 
191,3, 1 
*Equation 
4 
445,3, 1 
468,3,-1 
174,3,-1 
191,3, 1 
*Equation 
4 
911,3, 1 
929,3,-1 
174,3,-1 
191,3, 1 
*Equation 
4 
429,3, 1 
463,3,-1 
174,3,-1 
191,3, 1 
*Equation 
4 
898,3, 1 
925,3,-1 
174,3,-1 
191,3, 1 
*Equation 
4 
417,3, 1 
455,3,-1 
174,3,-1 
191,3, 1 
*Equation 
4 
889,3, 1 
923,3,-1 
174,3,-1 
191,3, 1 
*Equation 
4 
303,3, 1 
335,3,-1 
174,3,-1 
191,3, 1 
*Equation 
4 
48,3, 1 
68,3,-1 
174,3,-1 
191,3, 1 
*Equation 
4 
359,3, 1 
488,3,-1 
174,3,-1 
191,3, 1 
*Equation 
4 
42,3, 1 
62,3,-1 
174,3,-1 
191,3, 1 
*Equation 
4 
288,3, 1 
327,3,-1 
174,3,-1 
191,3, 1 
*Equation 
4 
30,3, 1 
58,3,-1 
174,3,-1 
191,3, 1 
*Equation 
4 
262,3, 1 
319,3,-1 
174,3,-1 
191,3, 1 
*Equation 
4 
20,3, 1 
51,3,-1 
174,3,-1 
191,3, 1 
*Equation 
4 
243,3, 1 
315,3,-1 
174,3,-1 
191,3, 1 
*Equation 
4 
804,3, 1 
823,3,-1 
174,3,-1 
191,3, 1 
*Equation 
4 
299,3, 1 
336,3,-1 
174,3,-1 
191,3, 1 
*Equation 
4 
846,3, 1 
949,3,-1 
174,3,-1 
191,3, 1 
*Equation 
4 
289,3, 1 
326,3,-1 
174,3,-1 
191,3, 1 
*Equation 
4 
796,3, 1 
818,3,-1 
174,3,-1 
191,3, 1 
*Equation 
4 
263,3, 1 
318,3,-1 
174,3,-1 
191,3, 1 
*Equation 
4 
780,3, 1 
813,3,-1 
174,3,-1 
191,3, 1 
*Equation 
4 
244,3, 1 
306,3,-1 
174,3,-1 
191,3, 1 
*Equation 
4 
769,3, 1 
810,3,-1 
174,3,-1 
191,3, 1 
*Equation 
4 
304,3, 1 
333,3,-1 
174,3,-1 
191,3, 1 
*Equation 
4 
47,3, 1 
65,3,-1 
174,3,-1 
191,3, 1 
*Equation 
4 
360,3, 1 
398,3,-1 
174,3,-1 
191,3, 1 
*Equation 
4 
41,3, 1 
61,3,-1 
174,3,-1 
191,3, 1 
*Equation 
4 
287,3, 1 
325,3,-1 
174,3,-1 
191,3, 1 
*Equation 
4 
29,3, 1 
57,3,-1 
174,3,-1 
191,3, 1 
*Equation 
4 
261,3, 1 
317,3,-1 
174,3,-1 
191,3, 1 
*Equation 
4 
17,3, 1 
50,3,-1 
174,3,-1 
191,3, 1 
*Equation 
4 
241,3, 1 
316,3,-1 
174,3,-1 
191,3, 1 
*Equation 
4 
1186,3, 1 
1163,3,-1 
174,3,-1 
191,3, 1 
*Equation 
4 
496,3, 1 
396,3,-1 
174,3,-1 
191,3, 1 
*Equation 
4 
965,3, 1 
876,3,-1 
174,3,-1 
191,3, 1 
*Equation 
4 
499,3, 1 
394,3,-1 
174,3,-1 
191,3, 1 
*Equation 
4 
1189,3, 1 
1166,3,-1 
174,3,-1 
191,3, 1 
*Equation 
4 
745,3, 1 
728,3,-1 
174,3,-1 
191,3, 1 
*Equation 
4 
1196,3, 1 
1169,3,-1 
174,3,-1 
191,3, 1 
*Equation 
4 
750,3, 1 
731,3,-1 
174,3,-1 
191,3, 1 
*Equation 
4 
1201,3, 1 
1172,3,-1 
174,3,-1 
191,3, 1 
