**** X-DIR 
*Equation 
4 
212,1, 1 
191,1,-1 
216,1,-1 
174,1, 1 
**** y-DIR 
*Equation 
4 
212,2, 1 
191,2,-1 
216,2,-1 
174,2, 1 
**** z-DIR 
*Equation 
4 
212,3, 1 
191,3,-1 
216,3,-1 
174,3, 1 
**** X-DIR 
*Equation 
4 
198,1, 1 
191,1,-1 
188,1,-1 
174,1, 1 
**** y-DIR 
*Equation 
4 
198,2, 1 
191,2,-1 
188,2,-1 
174,2, 1 
**** z-DIR 
*Equation 
4 
198,3, 1 
191,3,-1 
188,3,-1 
174,3, 1 
**** X-DIR 
*Equation 
4 
209,1, 1 
212,1,-1 
188,1,-1 
174,1, 1 
**** y-DIR 
*Equation 
4 
209,2, 1 
212,2,-1 
188,2,-1 
174,2, 1 
**** z-DIR 
*Equation 
4 
209,3, 1 
212,3,-1 
188,3,-1 
174,3, 1 
**** X-DIR 
*Equation 
4 
213,1, 1 
216,1,-1 
188,1,-1 
174,1, 1 
**** y-DIR 
*Equation 
4 
213,2, 1 
216,2,-1 
188,2,-1 
174,2, 1 
**** z-DIR 
*Equation 
4 
213,3, 1 
216,3,-1 
188,3,-1 
174,3, 1 
