**** X-DIR 
*Equation 
4 
724,1, 1 
693,1,-1 
216,1,-1 
174,1, 1 
*Equation 
4 
86,1, 1 
200,1,-1 
216,1,-1 
174,1, 1 
*Equation 
4 
397,1, 1 
702,1,-1 
216,1,-1 
174,1, 1 
*Equation 
4 
85,1, 1 
195,1,-1 
216,1,-1 
174,1, 1 
*Equation 
4 
726,1, 1 
686,1,-1 
216,1,-1 
174,1, 1 
*Equation 
4 
210,1, 1 
193,1,-1 
216,1,-1 
174,1, 1 
*Equation 
4 
729,1, 1 
681,1,-1 
216,1,-1 
174,1, 1 
*Equation 
4 
211,1, 1 
189,1,-1 
216,1,-1 
174,1, 1 
*Equation 
4 
732,1, 1 
676,1,-1 
216,1,-1 
174,1, 1 
**** Y-DIR 
*Equation 
4 
724,2, 1 
693,2,-1 
216,2,-1 
174,2, 1 
*Equation 
4 
86,2, 1 
200,2,-1 
216,2,-1 
174,2, 1 
*Equation 
4 
397,2, 1 
702,2,-1 
216,2,-1 
174,2, 1 
*Equation 
4 
85,2, 1 
195,2,-1 
216,2,-1 
174,2, 1 
*Equation 
4 
726,2, 1 
686,2,-1 
216,2,-1 
174,2, 1 
*Equation 
4 
210,2, 1 
193,2,-1 
216,2,-1 
174,2, 1 
*Equation 
4 
729,2, 1 
681,2,-1 
216,2,-1 
174,2, 1 
*Equation 
4 
211,2, 1 
189,2,-1 
216,2,-1 
174,2, 1 
*Equation 
4 
732,2, 1 
676,2,-1 
216,2,-1 
174,2, 1 
**** Z-DIR 
*Equation 
4 
724,3, 1 
693,3,-1 
216,3,-1 
174,3, 1 
*Equation 
4 
86,3, 1 
200,3,-1 
216,3,-1 
174,3, 1 
*Equation 
4 
397,3, 1 
702,3,-1 
216,3,-1 
174,3, 1 
*Equation 
4 
85,3, 1 
195,3,-1 
216,3,-1 
174,3, 1 
*Equation 
4 
726,3, 1 
686,3,-1 
216,3,-1 
174,3, 1 
*Equation 
4 
210,3, 1 
193,3,-1 
216,3,-1 
174,3, 1 
*Equation 
4 
729,3, 1 
681,3,-1 
216,3,-1 
174,3, 1 
*Equation 
4 
211,3, 1 
189,3,-1 
216,3,-1 
174,3, 1 
*Equation 
4 
732,3, 1 
676,3,-1 
216,3,-1 
174,3, 1 
**** X-DIR 
*Equation 
4 
740,1, 1 
666,1,-1 
216,1,-1 
174,1, 1 
*Equation 
4 
124,1, 1 
186,1,-1 
216,1,-1 
174,1, 1 
*Equation 
4 
502,1, 1 
755,1,-1 
216,1,-1 
174,1, 1 
*Equation 
4 
126,1, 1 
185,1,-1 
216,1,-1 
174,1, 1 
*Equation 
4 
744,1, 1 
659,1,-1 
216,1,-1 
174,1, 1 
*Equation 
4 
214,1, 1 
180,1,-1 
216,1,-1 
174,1, 1 
*Equation 
4 
749,1, 1 
644,1,-1 
216,1,-1 
174,1, 1 
*Equation 
4 
215,1, 1 
176,1,-1 
216,1,-1 
174,1, 1 
*Equation 
4 
753,1, 1 
634,1,-1 
216,1,-1 
174,1, 1 
**** Y-DIR 
*Equation 
4 
740,2, 1 
666,2,-1 
216,2,-1 
174,2, 1 
*Equation 
4 
124,2, 1 
186,2,-1 
216,2,-1 
174,2, 1 
*Equation 
4 
502,2, 1 
755,2,-1 
216,2,-1 
174,2, 1 
*Equation 
4 
126,2, 1 
185,2,-1 
216,2,-1 
174,2, 1 
*Equation 
4 
744,2, 1 
659,2,-1 
216,2,-1 
174,2, 1 
*Equation 
4 
214,2, 1 
180,2,-1 
216,2,-1 
174,2, 1 
*Equation 
4 
749,2, 1 
644,2,-1 
216,2,-1 
174,2, 1 
*Equation 
4 
215,2, 1 
176,2,-1 
216,2,-1 
174,2, 1 
*Equation 
4 
753,2, 1 
634,2,-1 
216,2,-1 
174,2, 1 
**** Z-DIR 
*Equation 
4 
740,3, 1 
666,3,-1 
216,3,-1 
174,3, 1 
*Equation 
4 
124,3, 1 
186,3,-1 
216,3,-1 
174,3, 1 
*Equation 
4 
502,3, 1 
755,3,-1 
216,3,-1 
174,3, 1 
*Equation 
4 
126,3, 1 
185,3,-1 
216,3,-1 
174,3, 1 
*Equation 
4 
744,3, 1 
659,3,-1 
216,3,-1 
174,3, 1 
*Equation 
4 
214,3, 1 
180,3,-1 
216,3,-1 
174,3, 1 
*Equation 
4 
749,3, 1 
644,3,-1 
216,3,-1 
174,3, 1 
*Equation 
4 
215,3, 1 
176,3,-1 
216,3,-1 
174,3, 1 
*Equation 
4 
753,3, 1 
634,3,-1 
216,3,-1 
174,3, 1 
**** X-DIR 
*Equation 
4 
693,1, 1 
666,1,-1 
191,1,-1 
174,1, 1 
*Equation 
4 
200,1, 1 
186,1,-1 
191,1,-1 
174,1, 1 
*Equation 
4 
702,1, 1 
755,1,-1 
191,1,-1 
174,1, 1 
*Equation 
4 
195,1, 1 
185,1,-1 
191,1,-1 
174,1, 1 
*Equation 
4 
686,1, 1 
659,1,-1 
191,1,-1 
174,1, 1 
*Equation 
4 
193,1, 1 
180,1,-1 
191,1,-1 
174,1, 1 
*Equation 
4 
681,1, 1 
644,1,-1 
191,1,-1 
174,1, 1 
*Equation 
4 
189,1, 1 
176,1,-1 
191,1,-1 
174,1, 1 
*Equation 
4 
676,1, 1 
634,1,-1 
191,1,-1 
174,1, 1 
**** Y-DIR 
*Equation 
4 
693,2, 1 
666,2,-1 
191,2,-1 
174,2, 1 
*Equation 
4 
200,2, 1 
186,2,-1 
191,2,-1 
174,2, 1 
*Equation 
4 
702,2, 1 
755,2,-1 
191,2,-1 
174,2, 1 
*Equation 
4 
195,2, 1 
185,2,-1 
191,2,-1 
174,2, 1 
*Equation 
4 
686,2, 1 
659,2,-1 
191,2,-1 
174,2, 1 
*Equation 
4 
193,2, 1 
180,2,-1 
191,2,-1 
174,2, 1 
*Equation 
4 
681,2, 1 
644,2,-1 
191,2,-1 
174,2, 1 
*Equation 
4 
189,2, 1 
176,2,-1 
191,2,-1 
174,2, 1 
*Equation 
4 
676,2, 1 
634,2,-1 
191,2,-1 
174,2, 1 
**** Z-DIR 
*Equation 
4 
693,3, 1 
666,3,-1 
191,3,-1 
174,3, 1 
*Equation 
4 
200,3, 1 
186,3,-1 
191,3,-1 
174,3, 1 
*Equation 
4 
702,3, 1 
755,3,-1 
191,3,-1 
174,3, 1 
*Equation 
4 
195,3, 1 
185,3,-1 
191,3,-1 
174,3, 1 
*Equation 
4 
686,3, 1 
659,3,-1 
191,3,-1 
174,3, 1 
*Equation 
4 
193,3, 1 
180,3,-1 
191,3,-1 
174,3, 1 
*Equation 
4 
681,3, 1 
644,3,-1 
191,3,-1 
174,3, 1 
*Equation 
4 
189,3, 1 
176,3,-1 
191,3,-1 
174,3, 1 
*Equation 
4 
676,3, 1 
634,3,-1 
191,3,-1 
174,3, 1 
**** X-DIR 
*Equation 
4 
689,1, 1 
672,1,-1 
188,1,-1 
174,1, 1 
*Equation 
4 
160,1, 1 
153,1,-1 
188,1,-1 
174,1, 1 
*Equation 
4 
580,1, 1 
563,1,-1 
188,1,-1 
174,1, 1 
*Equation 
4 
119,1, 1 
113,1,-1 
188,1,-1 
174,1, 1 
*Equation 
4 
473,1, 1 
458,1,-1 
188,1,-1 
174,1, 1 
*Equation 
4 
67,1, 1 
55,1,-1 
188,1,-1 
174,1, 1 
*Equation 
4 
334,1, 1 
310,1,-1 
188,1,-1 
174,1, 1 
*Equation 
4 
66,1, 1 
54,1,-1 
188,1,-1 
174,1, 1 
*Equation 
4 
725,1, 1 
734,1,-1 
188,1,-1 
174,1, 1 
**** Y-DIR 
*Equation 
4 
689,2, 1 
672,2,-1 
188,2,-1 
174,2, 1 
*Equation 
4 
160,2, 1 
153,2,-1 
188,2,-1 
174,2, 1 
*Equation 
4 
580,2, 1 
563,2,-1 
188,2,-1 
174,2, 1 
*Equation 
4 
119,2, 1 
113,2,-1 
188,2,-1 
174,2, 1 
*Equation 
4 
473,2, 1 
458,2,-1 
188,2,-1 
174,2, 1 
*Equation 
4 
67,2, 1 
55,2,-1 
188,2,-1 
174,2, 1 
*Equation 
4 
334,2, 1 
310,2,-1 
188,2,-1 
174,2, 1 
*Equation 
4 
66,2, 1 
54,2,-1 
188,2,-1 
174,2, 1 
*Equation 
4 
725,2, 1 
734,2,-1 
188,2,-1 
174,2, 1 
**** Z-DIR 
*Equation 
4 
689,3, 1 
672,3,-1 
188,3,-1 
174,3, 1 
*Equation 
4 
160,3, 1 
153,3,-1 
188,3,-1 
174,3, 1 
*Equation 
4 
580,3, 1 
563,3,-1 
188,3,-1 
174,3, 1 
*Equation 
4 
119,3, 1 
113,3,-1 
188,3,-1 
174,3, 1 
*Equation 
4 
473,3, 1 
458,3,-1 
188,3,-1 
174,3, 1 
*Equation 
4 
67,3, 1 
55,3,-1 
188,3,-1 
174,3, 1 
*Equation 
4 
334,3, 1 
310,3,-1 
188,3,-1 
174,3, 1 
*Equation 
4 
66,3, 1 
54,3,-1 
188,3,-1 
174,3, 1 
*Equation 
4 
725,3, 1 
734,3,-1 
188,3,-1 
174,3, 1 
**** X-DIR 
*Equation 
4 
665,1, 1 
630,1,-1 
188,1,-1 
174,1, 1 
*Equation 
4 
150,1, 1 
138,1,-1 
188,1,-1 
174,1, 1 
*Equation 
4 
557,1, 1 
525,1,-1 
188,1,-1 
174,1, 1 
*Equation 
4 
108,1, 1 
95,1,-1 
188,1,-1 
174,1, 1 
*Equation 
4 
448,1, 1 
415,1,-1 
188,1,-1 
174,1, 1 
*Equation 
4 
45,1, 1 
19,1,-1 
188,1,-1 
174,1, 1 
*Equation 
4 
295,1, 1 
242,1,-1 
188,1,-1 
174,1, 1 
*Equation 
4 
44,1, 1 
18,1,-1 
188,1,-1 
174,1, 1 
*Equation 
4 
742,1, 1 
754,1,-1 
188,1,-1 
174,1, 1 
**** Y-DIR 
*Equation 
4 
665,2, 1 
630,2,-1 
188,2,-1 
174,2, 1 
*Equation 
4 
150,2, 1 
138,2,-1 
188,2,-1 
174,2, 1 
*Equation 
4 
557,2, 1 
525,2,-1 
188,2,-1 
174,2, 1 
*Equation 
4 
108,2, 1 
95,2,-1 
188,2,-1 
174,2, 1 
*Equation 
4 
448,2, 1 
415,2,-1 
188,2,-1 
174,2, 1 
*Equation 
4 
45,2, 1 
19,2,-1 
188,2,-1 
174,2, 1 
*Equation 
4 
295,2, 1 
242,2,-1 
188,2,-1 
174,2, 1 
*Equation 
4 
44,2, 1 
18,2,-1 
188,2,-1 
174,2, 1 
*Equation 
4 
742,2, 1 
754,2,-1 
188,2,-1 
174,2, 1 
**** Z-DIR 
*Equation 
4 
665,3, 1 
630,3,-1 
188,3,-1 
174,3, 1 
*Equation 
4 
150,3, 1 
138,3,-1 
188,3,-1 
174,3, 1 
*Equation 
4 
557,3, 1 
525,3,-1 
188,3,-1 
174,3, 1 
*Equation 
4 
108,3, 1 
95,3,-1 
188,3,-1 
174,3, 1 
*Equation 
4 
448,3, 1 
415,3,-1 
188,3,-1 
174,3, 1 
*Equation 
4 
45,3, 1 
19,3,-1 
188,3,-1 
174,3, 1 
*Equation 
4 
295,3, 1 
242,3,-1 
188,3,-1 
174,3, 1 
*Equation 
4 
44,3, 1 
18,3,-1 
188,3,-1 
174,3, 1 
*Equation 
4 
742,3, 1 
754,3,-1 
188,3,-1 
174,3, 1 
**** X-DIR 
*Equation 
4 
672,1, 1 
630,1,-1 
191,1,-1 
174,1, 1 
*Equation 
4 
153,1, 1 
138,1,-1 
191,1,-1 
174,1, 1 
*Equation 
4 
563,1, 1 
525,1,-1 
191,1,-1 
174,1, 1 
*Equation 
4 
113,1, 1 
95,1,-1 
191,1,-1 
174,1, 1 
*Equation 
4 
458,1, 1 
415,1,-1 
191,1,-1 
174,1, 1 
*Equation 
4 
55,1, 1 
19,1,-1 
191,1,-1 
174,1, 1 
*Equation 
4 
310,1, 1 
242,1,-1 
191,1,-1 
174,1, 1 
*Equation 
4 
54,1, 1 
18,1,-1 
191,1,-1 
174,1, 1 
*Equation 
4 
734,1, 1 
754,1,-1 
191,1,-1 
174,1, 1 
**** Y-DIR 
*Equation 
4 
672,2, 1 
630,2,-1 
191,2,-1 
174,2, 1 
*Equation 
4 
153,2, 1 
138,2,-1 
191,2,-1 
174,2, 1 
*Equation 
4 
563,2, 1 
525,2,-1 
191,2,-1 
174,2, 1 
*Equation 
4 
113,2, 1 
95,2,-1 
191,2,-1 
174,2, 1 
*Equation 
4 
458,2, 1 
415,2,-1 
191,2,-1 
174,2, 1 
*Equation 
4 
55,2, 1 
19,2,-1 
191,2,-1 
174,2, 1 
*Equation 
4 
310,2, 1 
242,2,-1 
191,2,-1 
174,2, 1 
*Equation 
4 
54,2, 1 
18,2,-1 
191,2,-1 
174,2, 1 
*Equation 
4 
734,2, 1 
754,2,-1 
191,2,-1 
174,2, 1 
**** Z-DIR 
*Equation 
4 
672,3, 1 
630,3,-1 
191,3,-1 
174,3, 1 
*Equation 
4 
153,3, 1 
138,3,-1 
191,3,-1 
174,3, 1 
*Equation 
4 
563,3, 1 
525,3,-1 
191,3,-1 
174,3, 1 
*Equation 
4 
113,3, 1 
95,3,-1 
191,3,-1 
174,3, 1 
*Equation 
4 
458,3, 1 
415,3,-1 
191,3,-1 
174,3, 1 
*Equation 
4 
55,3, 1 
19,3,-1 
191,3,-1 
174,3, 1 
*Equation 
4 
310,3, 1 
242,3,-1 
191,3,-1 
174,3, 1 
*Equation 
4 
54,3, 1 
18,3,-1 
191,3,-1 
174,3, 1 
*Equation 
4 
734,3, 1 
754,3,-1 
191,3,-1 
174,3, 1 
**** X-DIR 
*Equation 
4 
741,1, 1 
664,1,-1 
216,1,-1 
174,1, 1 
*Equation 
4 
164,1, 1 
187,1,-1 
216,1,-1 
174,1, 1 
*Equation 
4 
599,1, 1 
736,1,-1 
216,1,-1 
174,1, 1 
*Equation 
4 
163,1, 1 
168,1,-1 
216,1,-1 
174,1, 1 
*Equation 
4 
756,1, 1 
616,1,-1 
216,1,-1 
174,1, 1 
*Equation 
4 
208,1, 1 
167,1,-1 
216,1,-1 
174,1, 1 
*Equation 
4 
720,1, 1 
696,1,-1 
216,1,-1 
174,1, 1 
*Equation 
4 
207,1, 1 
197,1,-1 
216,1,-1 
174,1, 1 
*Equation 
4 
723,1, 1 
688,1,-1 
216,1,-1 
174,1, 1 
**** Y-DIR 
*Equation 
4 
741,2, 1 
664,2,-1 
216,2,-1 
174,2, 1 
*Equation 
4 
164,2, 1 
187,2,-1 
216,2,-1 
174,2, 1 
*Equation 
4 
599,2, 1 
736,2,-1 
216,2,-1 
174,2, 1 
*Equation 
4 
163,2, 1 
168,2,-1 
216,2,-1 
174,2, 1 
*Equation 
4 
756,2, 1 
616,2,-1 
216,2,-1 
174,2, 1 
*Equation 
4 
208,2, 1 
167,2,-1 
216,2,-1 
174,2, 1 
*Equation 
4 
720,2, 1 
696,2,-1 
216,2,-1 
174,2, 1 
*Equation 
4 
207,2, 1 
197,2,-1 
216,2,-1 
174,2, 1 
*Equation 
4 
723,2, 1 
688,2,-1 
216,2,-1 
174,2, 1 
**** Z-DIR 
*Equation 
4 
741,3, 1 
664,3,-1 
216,3,-1 
174,3, 1 
*Equation 
4 
164,3, 1 
187,3,-1 
216,3,-1 
174,3, 1 
*Equation 
4 
599,3, 1 
736,3,-1 
216,3,-1 
174,3, 1 
*Equation 
4 
163,3, 1 
168,3,-1 
216,3,-1 
174,3, 1 
*Equation 
4 
756,3, 1 
616,3,-1 
216,3,-1 
174,3, 1 
*Equation 
4 
208,3, 1 
167,3,-1 
216,3,-1 
174,3, 1 
*Equation 
4 
720,3, 1 
696,3,-1 
216,3,-1 
174,3, 1 
*Equation 
4 
207,3, 1 
197,3,-1 
216,3,-1 
174,3, 1 
*Equation 
4 
723,3, 1 
688,3,-1 
216,3,-1 
174,3, 1 
**** X-DIR 
*Equation 
4 
752,1, 1 
629,1,-1 
216,1,-1 
174,1, 1 
*Equation 
4 
79,1, 1 
173,1,-1 
216,1,-1 
174,1, 1 
*Equation 
4 
377,1, 1 
739,1,-1 
216,1,-1 
174,1, 1 
*Equation 
4 
80,1, 1 
182,1,-1 
216,1,-1 
174,1, 1 
*Equation 
4 
746,1, 1 
647,1,-1 
216,1,-1 
174,1, 1 
*Equation 
4 
203,1, 1 
181,1,-1 
216,1,-1 
174,1, 1 
*Equation 
4 
704,1, 1 
700,1,-1 
216,1,-1 
174,1, 1 
*Equation 
4 
202,1, 1 
192,1,-1 
216,1,-1 
174,1, 1 
*Equation 
4 
733,1, 1 
673,1,-1 
216,1,-1 
174,1, 1 
**** Y-DIR 
*Equation 
4 
752,2, 1 
629,2,-1 
216,2,-1 
174,2, 1 
*Equation 
4 
79,2, 1 
173,2,-1 
216,2,-1 
174,2, 1 
*Equation 
4 
377,2, 1 
739,2,-1 
216,2,-1 
174,2, 1 
*Equation 
4 
80,2, 1 
182,2,-1 
216,2,-1 
174,2, 1 
*Equation 
4 
746,2, 1 
647,2,-1 
216,2,-1 
174,2, 1 
*Equation 
4 
203,2, 1 
181,2,-1 
216,2,-1 
174,2, 1 
*Equation 
4 
704,2, 1 
700,2,-1 
216,2,-1 
174,2, 1 
*Equation 
4 
202,2, 1 
192,2,-1 
216,2,-1 
174,2, 1 
*Equation 
4 
733,2, 1 
673,2,-1 
216,2,-1 
174,2, 1 
**** Z-DIR 
*Equation 
4 
752,3, 1 
629,3,-1 
216,3,-1 
174,3, 1 
*Equation 
4 
79,3, 1 
173,3,-1 
216,3,-1 
174,3, 1 
*Equation 
4 
377,3, 1 
739,3,-1 
216,3,-1 
174,3, 1 
*Equation 
4 
80,3, 1 
182,3,-1 
216,3,-1 
174,3, 1 
*Equation 
4 
746,3, 1 
647,3,-1 
216,3,-1 
174,3, 1 
*Equation 
4 
203,3, 1 
181,3,-1 
216,3,-1 
174,3, 1 
*Equation 
4 
704,3, 1 
700,3,-1 
216,3,-1 
174,3, 1 
*Equation 
4 
202,3, 1 
192,3,-1 
216,3,-1 
174,3, 1 
*Equation 
4 
733,3, 1 
673,3,-1 
216,3,-1 
174,3, 1 
**** X-DIR 
*Equation 
4 
664,1, 1 
629,1,-1 
188,1,-1 
174,1, 1 
*Equation 
4 
187,1, 1 
173,1,-1 
188,1,-1 
174,1, 1 
*Equation 
4 
736,1, 1 
739,1,-1 
188,1,-1 
174,1, 1 
*Equation 
4 
168,1, 1 
182,1,-1 
188,1,-1 
174,1, 1 
*Equation 
4 
616,1, 1 
647,1,-1 
188,1,-1 
174,1, 1 
*Equation 
4 
167,1, 1 
181,1,-1 
188,1,-1 
174,1, 1 
*Equation 
4 
696,1, 1 
700,1,-1 
188,1,-1 
174,1, 1 
*Equation 
4 
197,1, 1 
192,1,-1 
188,1,-1 
174,1, 1 
*Equation 
4 
688,1, 1 
673,1,-1 
188,1,-1 
174,1, 1 
**** Y-DIR 
*Equation 
4 
664,2, 1 
629,2,-1 
188,2,-1 
174,2, 1 
*Equation 
4 
187,2, 1 
173,2,-1 
188,2,-1 
174,2, 1 
*Equation 
4 
736,2, 1 
739,2,-1 
188,2,-1 
174,2, 1 
*Equation 
4 
168,2, 1 
182,2,-1 
188,2,-1 
174,2, 1 
*Equation 
4 
616,2, 1 
647,2,-1 
188,2,-1 
174,2, 1 
*Equation 
4 
167,2, 1 
181,2,-1 
188,2,-1 
174,2, 1 
*Equation 
4 
696,2, 1 
700,2,-1 
188,2,-1 
174,2, 1 
*Equation 
4 
197,2, 1 
192,2,-1 
188,2,-1 
174,2, 1 
*Equation 
4 
688,2, 1 
673,2,-1 
188,2,-1 
174,2, 1 
**** Z-DIR 
*Equation 
4 
664,3, 1 
629,3,-1 
188,3,-1 
174,3, 1 
*Equation 
4 
187,3, 1 
173,3,-1 
188,3,-1 
174,3, 1 
*Equation 
4 
736,3, 1 
739,3,-1 
188,3,-1 
174,3, 1 
*Equation 
4 
168,3, 1 
182,3,-1 
188,3,-1 
174,3, 1 
*Equation 
4 
616,3, 1 
647,3,-1 
188,3,-1 
174,3, 1 
*Equation 
4 
167,3, 1 
181,3,-1 
188,3,-1 
174,3, 1 
*Equation 
4 
696,3, 1 
700,3,-1 
188,3,-1 
174,3, 1 
*Equation 
4 
197,3, 1 
192,3,-1 
188,3,-1 
174,3, 1 
*Equation 
4 
688,3, 1 
673,3,-1 
188,3,-1 
174,3, 1 
