**** X-DIR 
*Equation 
4 
1102,1,-1 
1075,1,1 
174,1,-1 
188,1,1 
*Equation 
4 
663,1,-1 
628,1,1 
174,1,-1 
188,1,1 
*Equation 
4 
1176,1,-1 
1182,1,1 
174,1,-1 
188,1,1 
*Equation 
4 
617,1,-1 
648,1,1 
174,1,-1 
188,1,1 
*Equation 
4 
1065,1,-1 
1088,1,1 
174,1,-1 
188,1,1 
*Equation 
4 
615,1,-1 
646,1,1 
174,1,-1 
188,1,1 
*Equation 
4 
1132,1,-1 
1139,1,1 
174,1,-1 
188,1,1 
*Equation 
4 
687,1,-1 
674,1,1 
174,1,-1 
188,1,1 
*Equation 
4 
1126,1,-1 
1114,1,1 
174,1,-1 
188,1,1 
*Equation 
4 
556,1,-1 
526,1,1 
174,1,-1 
188,1,1 
*Equation 
4 
149,1,-1 
136,1,1 
174,1,-1 
188,1,1 
*Equation 
4 
668,1,-1 
609,1,1 
174,1,-1 
188,1,1 
*Equation 
4 
127,1,-1 
144,1,1 
174,1,-1 
188,1,1 
*Equation 
4 
511,1,-1 
539,1,1 
174,1,-1 
188,1,1 
*Equation 
4 
129,1,-1 
143,1,1 
174,1,-1 
188,1,1 
*Equation 
4 
587,1,-1 
591,1,1 
174,1,-1 
188,1,1 
*Equation 
4 
159,1,-1 
154,1,1 
174,1,-1 
188,1,1 
*Equation 
4 
579,1,-1 
564,1,1 
174,1,-1 
188,1,1 
*Equation 
4 
1006,1,-1 
981,1,1 
174,1,-1 
188,1,1 
*Equation 
4 
555,1,-1 
522,1,1 
174,1,-1 
188,1,1 
*Equation 
4 
1111,1,-1 
1056,1,1 
174,1,-1 
188,1,1 
*Equation 
4 
504,1,-1 
540,1,1 
174,1,-1 
188,1,1 
*Equation 
4 
972,1,-1 
992,1,1 
174,1,-1 
188,1,1 
*Equation 
4 
507,1,-1 
538,1,1 
174,1,-1 
188,1,1 
*Equation 
4 
1029,1,-1 
1036,1,1 
174,1,-1 
188,1,1 
*Equation 
4 
578,1,-1 
565,1,1 
174,1,-1 
188,1,1 
*Equation 
4 
1023,1,-1 
1011,1,1 
174,1,-1 
188,1,1 
*Equation 
4 
449,1,-1 
422,1,1 
174,1,-1 
188,1,1 
*Equation 
4 
109,1,-1 
97,1,1 
174,1,-1 
188,1,1 
*Equation 
4 
503,1,-1 
608,1,1 
174,1,-1 
188,1,1 
*Equation 
4 
87,1,-1 
104,1,1 
174,1,-1 
188,1,1 
*Equation 
4 
400,1,-1 
434,1,1 
174,1,-1 
188,1,1 
*Equation 
4 
88,1,-1 
103,1,1 
174,1,-1 
188,1,1 
*Equation 
4 
481,1,-1 
486,1,1 
174,1,-1 
188,1,1 
*Equation 
4 
121,1,-1 
114,1,1 
174,1,-1 
188,1,1 
*Equation 
4 
480,1,-1 
459,1,1 
174,1,-1 
188,1,1 
*Equation 
4 
915,1,-1 
892,1,1 
174,1,-1 
188,1,1 
*Equation 
4 
450,1,-1 
418,1,1 
174,1,-1 
188,1,1 
*Equation 
4 
967,1,-1 
1109,1,1 
174,1,-1 
188,1,1 
*Equation 
4 
399,1,-1 
435,1,1 
174,1,-1 
188,1,1 
*Equation 
4 
879,1,-1 
902,1,1 
174,1,-1 
188,1,1 
*Equation 
4 
401,1,-1 
433,1,1 
174,1,-1 
188,1,1 
*Equation 
4 
938,1,-1 
946,1,1 
174,1,-1 
188,1,1 
*Equation 
4 
476,1,-1 
460,1,1 
174,1,-1 
188,1,1 
*Equation 
4 
936,1,-1 
921,1,1 
174,1,-1 
188,1,1 
*Equation 
4 
296,1,-1 
251,1,1 
174,1,-1 
188,1,1 
*Equation 
4 
46,1,-1 
22,1,1 
174,1,-1 
188,1,1 
*Equation 
4 
358,1,-1 
495,1,1 
174,1,-1 
188,1,1 
*Equation 
4 
3,1,-1 
36,1,1 
174,1,-1 
188,1,1 
*Equation 
4 
219,1,-1 
271,1,1 
174,1,-1 
188,1,1 
*Equation 
4 
4,1,-1 
35,1,1 
174,1,-1 
188,1,1 
*Equation 
4 
346,1,-1 
356,1,1 
174,1,-1 
188,1,1 
*Equation 
4 
71,1,-1 
56,1,1 
174,1,-1 
188,1,1 
*Equation 
4 
343,1,-1 
311,1,1 
174,1,-1 
188,1,1 
*Equation 
4 
801,1,-1 
772,1,1 
174,1,-1 
188,1,1 
*Equation 
4 
297,1,-1 
246,1,1 
174,1,-1 
188,1,1 
*Equation 
4 
843,1,-1 
959,1,1 
174,1,-1 
188,1,1 
*Equation 
4 
218,1,-1 
272,1,1 
174,1,-1 
188,1,1 
*Equation 
4 
757,1,-1 
785,1,1 
174,1,-1 
188,1,1 
*Equation 
4 
220,1,-1 
270,1,1 
174,1,-1 
188,1,1 
*Equation 
4 
829,1,-1 
840,1,1 
174,1,-1 
188,1,1 
*Equation 
4 
338,1,-1 
312,1,1 
174,1,-1 
188,1,1 
*Equation 
4 
826,1,-1 
808,1,1 
174,1,-1 
188,1,1 
*Equation 
4 
294,1,-1 
252,1,1 
174,1,-1 
188,1,1 
*Equation 
4 
43,1,-1 
21,1,1 
174,1,-1 
188,1,1 
*Equation 
4 
357,1,-1 
375,1,1 
174,1,-1 
188,1,1 
*Equation 
4 
2,1,-1 
33,1,1 
174,1,-1 
188,1,1 
*Equation 
4 
217,1,-1 
269,1,1 
174,1,-1 
188,1,1 
*Equation 
4 
1,1,-1 
34,1,1 
174,1,-1 
188,1,1 
*Equation 
4 
345,1,-1 
355,1,1 
174,1,-1 
188,1,1 
*Equation 
4 
70,1,-1 
53,1,1 
174,1,-1 
188,1,1 
*Equation 
4 
344,1,-1 
309,1,1 
174,1,-1 
188,1,1 
*Equation 
4 
1185,1,-1 
1200,1,1 
174,1,-1 
188,1,1 
*Equation 
4 
600,1,-1 
376,1,1 
174,1,-1 
188,1,1 
*Equation 
4 
1045,1,-1 
856,1,1 
174,1,-1 
188,1,1 
*Equation 
4 
598,1,-1 
378,1,1 
174,1,-1 
188,1,1 
*Equation 
4 
1206,1,-1 
1193,1,1 
174,1,-1 
188,1,1 
*Equation 
4 
721,1,-1 
709,1,1 
174,1,-1 
188,1,1 
*Equation 
4 
1158,1,-1 
1147,1,1 
174,1,-1 
188,1,1 
*Equation 
4 
722,1,-1 
710,1,1 
174,1,-1 
188,1,1 
*Equation 
4 
1162,1,-1 
1171,1,1 
174,1,-1 
188,1,1 
**** 
**** Y-DIR 
*Equation 
4 
1102,2,-1 
1075,2,1 
174,2,-1 
188,2,1 
*Equation 
4 
663,2,-1 
628,2,1 
174,2,-1 
188,2,1 
*Equation 
4 
1176,2,-1 
1182,2,1 
174,2,-1 
188,2,1 
*Equation 
4 
617,2,-1 
648,2,1 
174,2,-1 
188,2,1 
*Equation 
4 
1065,2,-1 
1088,2,1 
174,2,-1 
188,2,1 
*Equation 
4 
615,2,-1 
646,2,1 
174,2,-1 
188,2,1 
*Equation 
4 
1132,2,-1 
1139,2,1 
174,2,-1 
188,2,1 
*Equation 
4 
687,2,-1 
674,2,1 
174,2,-1 
188,2,1 
*Equation 
4 
1126,2,-1 
1114,2,1 
174,2,-1 
188,2,1 
*Equation 
4 
556,2,-1 
526,2,1 
174,2,-1 
188,2,1 
*Equation 
4 
149,2,-1 
136,2,1 
174,2,-1 
188,2,1 
*Equation 
4 
668,2,-1 
609,2,1 
174,2,-1 
188,2,1 
*Equation 
4 
127,2,-1 
144,2,1 
174,2,-1 
188,2,1 
*Equation 
4 
511,2,-1 
539,2,1 
174,2,-1 
188,2,1 
*Equation 
4 
129,2,-1 
143,2,1 
174,2,-1 
188,2,1 
*Equation 
4 
587,2,-1 
591,2,1 
174,2,-1 
188,2,1 
*Equation 
4 
159,2,-1 
154,2,1 
174,2,-1 
188,2,1 
*Equation 
4 
579,2,-1 
564,2,1 
174,2,-1 
188,2,1 
*Equation 
4 
1006,2,-1 
981,2,1 
174,2,-1 
188,2,1 
*Equation 
4 
555,2,-1 
522,2,1 
174,2,-1 
188,2,1 
*Equation 
4 
1111,2,-1 
1056,2,1 
174,2,-1 
188,2,1 
*Equation 
4 
504,2,-1 
540,2,1 
174,2,-1 
188,2,1 
*Equation 
4 
972,2,-1 
992,2,1 
174,2,-1 
188,2,1 
*Equation 
4 
507,2,-1 
538,2,1 
174,2,-1 
188,2,1 
*Equation 
4 
1029,2,-1 
1036,2,1 
174,2,-1 
188,2,1 
*Equation 
4 
578,2,-1 
565,2,1 
174,2,-1 
188,2,1 
*Equation 
4 
1023,2,-1 
1011,2,1 
174,2,-1 
188,2,1 
*Equation 
4 
449,2,-1 
422,2,1 
174,2,-1 
188,2,1 
*Equation 
4 
109,2,-1 
97,2,1 
174,2,-1 
188,2,1 
*Equation 
4 
503,2,-1 
608,2,1 
174,2,-1 
188,2,1 
*Equation 
4 
87,2,-1 
104,2,1 
174,2,-1 
188,2,1 
*Equation 
4 
400,2,-1 
434,2,1 
174,2,-1 
188,2,1 
*Equation 
4 
88,2,-1 
103,2,1 
174,2,-1 
188,2,1 
*Equation 
4 
481,2,-1 
486,2,1 
174,2,-1 
188,2,1 
*Equation 
4 
121,2,-1 
114,2,1 
174,2,-1 
188,2,1 
*Equation 
4 
480,2,-1 
459,2,1 
174,2,-1 
188,2,1 
*Equation 
4 
915,2,-1 
892,2,1 
174,2,-1 
188,2,1 
*Equation 
4 
450,2,-1 
418,2,1 
174,2,-1 
188,2,1 
*Equation 
4 
967,2,-1 
1109,2,1 
174,2,-1 
188,2,1 
*Equation 
4 
399,2,-1 
435,2,1 
174,2,-1 
188,2,1 
*Equation 
4 
879,2,-1 
902,2,1 
174,2,-1 
188,2,1 
*Equation 
4 
401,2,-1 
433,2,1 
174,2,-1 
188,2,1 
*Equation 
4 
938,2,-1 
946,2,1 
174,2,-1 
188,2,1 
*Equation 
4 
476,2,-1 
460,2,1 
174,2,-1 
188,2,1 
*Equation 
4 
936,2,-1 
921,2,1 
174,2,-1 
188,2,1 
*Equation 
4 
296,2,-1 
251,2,1 
174,2,-1 
188,2,1 
*Equation 
4 
46,2,-1 
22,2,1 
174,2,-1 
188,2,1 
*Equation 
4 
358,2,-1 
495,2,1 
174,2,-1 
188,2,1 
*Equation 
4 
3,2,-1 
36,2,1 
174,2,-1 
188,2,1 
*Equation 
4 
219,2,-1 
271,2,1 
174,2,-1 
188,2,1 
*Equation 
4 
4,2,-1 
35,2,1 
174,2,-1 
188,2,1 
*Equation 
4 
346,2,-1 
356,2,1 
174,2,-1 
188,2,1 
*Equation 
4 
71,2,-1 
56,2,1 
174,2,-1 
188,2,1 
*Equation 
4 
343,2,-1 
311,2,1 
174,2,-1 
188,2,1 
*Equation 
4 
801,2,-1 
772,2,1 
174,2,-1 
188,2,1 
*Equation 
4 
297,2,-1 
246,2,1 
174,2,-1 
188,2,1 
*Equation 
4 
843,2,-1 
959,2,1 
174,2,-1 
188,2,1 
*Equation 
4 
218,2,-1 
272,2,1 
174,2,-1 
188,2,1 
*Equation 
4 
757,2,-1 
785,2,1 
174,2,-1 
188,2,1 
*Equation 
4 
220,2,-1 
270,2,1 
174,2,-1 
188,2,1 
*Equation 
4 
829,2,-1 
840,2,1 
174,2,-1 
188,2,1 
*Equation 
4 
338,2,-1 
312,2,1 
174,2,-1 
188,2,1 
*Equation 
4 
826,2,-1 
808,2,1 
174,2,-1 
188,2,1 
*Equation 
4 
294,2,-1 
252,2,1 
174,2,-1 
188,2,1 
*Equation 
4 
43,2,-1 
21,2,1 
174,2,-1 
188,2,1 
*Equation 
4 
357,2,-1 
375,2,1 
174,2,-1 
188,2,1 
*Equation 
4 
2,2,-1 
33,2,1 
174,2,-1 
188,2,1 
*Equation 
4 
217,2,-1 
269,2,1 
174,2,-1 
188,2,1 
*Equation 
4 
1,2,-1 
34,2,1 
174,2,-1 
188,2,1 
*Equation 
4 
345,2,-1 
355,2,1 
174,2,-1 
188,2,1 
*Equation 
4 
70,2,-1 
53,2,1 
174,2,-1 
188,2,1 
*Equation 
4 
344,2,-1 
309,2,1 
174,2,-1 
188,2,1 
*Equation 
4 
1185,2,-1 
1200,2,1 
174,2,-1 
188,2,1 
*Equation 
4 
600,2,-1 
376,2,1 
174,2,-1 
188,2,1 
*Equation 
4 
1045,2,-1 
856,2,1 
174,2,-1 
188,2,1 
*Equation 
4 
598,2,-1 
378,2,1 
174,2,-1 
188,2,1 
*Equation 
4 
1206,2,-1 
1193,2,1 
174,2,-1 
188,2,1 
*Equation 
4 
721,2,-1 
709,2,1 
174,2,-1 
188,2,1 
*Equation 
4 
1158,2,-1 
1147,2,1 
174,2,-1 
188,2,1 
*Equation 
4 
722,2,-1 
710,2,1 
174,2,-1 
188,2,1 
*Equation 
4 
1162,2,-1 
1171,2,1 
174,2,-1 
188,2,1 
**** 
**** Z-DIR 
*Equation 
4 
1102,3,-1 
1075,3,1 
174,3,-1 
188,3,1 
*Equation 
4 
663,3,-1 
628,3,1 
174,3,-1 
188,3,1 
*Equation 
4 
1176,3,-1 
1182,3,1 
174,3,-1 
188,3,1 
*Equation 
4 
617,3,-1 
648,3,1 
174,3,-1 
188,3,1 
*Equation 
4 
1065,3,-1 
1088,3,1 
174,3,-1 
188,3,1 
*Equation 
4 
615,3,-1 
646,3,1 
174,3,-1 
188,3,1 
*Equation 
4 
1132,3,-1 
1139,3,1 
174,3,-1 
188,3,1 
*Equation 
4 
687,3,-1 
674,3,1 
174,3,-1 
188,3,1 
*Equation 
4 
1126,3,-1 
1114,3,1 
174,3,-1 
188,3,1 
*Equation 
4 
556,3,-1 
526,3,1 
174,3,-1 
188,3,1 
*Equation 
4 
149,3,-1 
136,3,1 
174,3,-1 
188,3,1 
*Equation 
4 
668,3,-1 
609,3,1 
174,3,-1 
188,3,1 
*Equation 
4 
127,3,-1 
144,3,1 
174,3,-1 
188,3,1 
*Equation 
4 
511,3,-1 
539,3,1 
174,3,-1 
188,3,1 
*Equation 
4 
129,3,-1 
143,3,1 
174,3,-1 
188,3,1 
*Equation 
4 
587,3,-1 
591,3,1 
174,3,-1 
188,3,1 
*Equation 
4 
159,3,-1 
154,3,1 
174,3,-1 
188,3,1 
*Equation 
4 
579,3,-1 
564,3,1 
174,3,-1 
188,3,1 
*Equation 
4 
1006,3,-1 
981,3,1 
174,3,-1 
188,3,1 
*Equation 
4 
555,3,-1 
522,3,1 
174,3,-1 
188,3,1 
*Equation 
4 
1111,3,-1 
1056,3,1 
174,3,-1 
188,3,1 
*Equation 
4 
504,3,-1 
540,3,1 
174,3,-1 
188,3,1 
*Equation 
4 
972,3,-1 
992,3,1 
174,3,-1 
188,3,1 
*Equation 
4 
507,3,-1 
538,3,1 
174,3,-1 
188,3,1 
*Equation 
4 
1029,3,-1 
1036,3,1 
174,3,-1 
188,3,1 
*Equation 
4 
578,3,-1 
565,3,1 
174,3,-1 
188,3,1 
*Equation 
4 
1023,3,-1 
1011,3,1 
174,3,-1 
188,3,1 
*Equation 
4 
449,3,-1 
422,3,1 
174,3,-1 
188,3,1 
*Equation 
4 
109,3,-1 
97,3,1 
174,3,-1 
188,3,1 
*Equation 
4 
503,3,-1 
608,3,1 
174,3,-1 
188,3,1 
*Equation 
4 
87,3,-1 
104,3,1 
174,3,-1 
188,3,1 
*Equation 
4 
400,3,-1 
434,3,1 
174,3,-1 
188,3,1 
*Equation 
4 
88,3,-1 
103,3,1 
174,3,-1 
188,3,1 
*Equation 
4 
481,3,-1 
486,3,1 
174,3,-1 
188,3,1 
*Equation 
4 
121,3,-1 
114,3,1 
174,3,-1 
188,3,1 
*Equation 
4 
480,3,-1 
459,3,1 
174,3,-1 
188,3,1 
*Equation 
4 
915,3,-1 
892,3,1 
174,3,-1 
188,3,1 
*Equation 
4 
450,3,-1 
418,3,1 
174,3,-1 
188,3,1 
*Equation 
4 
967,3,-1 
1109,3,1 
174,3,-1 
188,3,1 
*Equation 
4 
399,3,-1 
435,3,1 
174,3,-1 
188,3,1 
*Equation 
4 
879,3,-1 
902,3,1 
174,3,-1 
188,3,1 
*Equation 
4 
401,3,-1 
433,3,1 
174,3,-1 
188,3,1 
*Equation 
4 
938,3,-1 
946,3,1 
174,3,-1 
188,3,1 
*Equation 
4 
476,3,-1 
460,3,1 
174,3,-1 
188,3,1 
*Equation 
4 
936,3,-1 
921,3,1 
174,3,-1 
188,3,1 
*Equation 
4 
296,3,-1 
251,3,1 
174,3,-1 
188,3,1 
*Equation 
4 
46,3,-1 
22,3,1 
174,3,-1 
188,3,1 
*Equation 
4 
358,3,-1 
495,3,1 
174,3,-1 
188,3,1 
*Equation 
4 
3,3,-1 
36,3,1 
174,3,-1 
188,3,1 
*Equation 
4 
219,3,-1 
271,3,1 
174,3,-1 
188,3,1 
*Equation 
4 
4,3,-1 
35,3,1 
174,3,-1 
188,3,1 
*Equation 
4 
346,3,-1 
356,3,1 
174,3,-1 
188,3,1 
*Equation 
4 
71,3,-1 
56,3,1 
174,3,-1 
188,3,1 
*Equation 
4 
343,3,-1 
311,3,1 
174,3,-1 
188,3,1 
*Equation 
4 
801,3,-1 
772,3,1 
174,3,-1 
188,3,1 
*Equation 
4 
297,3,-1 
246,3,1 
174,3,-1 
188,3,1 
*Equation 
4 
843,3,-1 
959,3,1 
174,3,-1 
188,3,1 
*Equation 
4 
218,3,-1 
272,3,1 
174,3,-1 
188,3,1 
*Equation 
4 
757,3,-1 
785,3,1 
174,3,-1 
188,3,1 
*Equation 
4 
220,3,-1 
270,3,1 
174,3,-1 
188,3,1 
*Equation 
4 
829,3,-1 
840,3,1 
174,3,-1 
188,3,1 
*Equation 
4 
338,3,-1 
312,3,1 
174,3,-1 
188,3,1 
*Equation 
4 
826,3,-1 
808,3,1 
174,3,-1 
188,3,1 
*Equation 
4 
294,3,-1 
252,3,1 
174,3,-1 
188,3,1 
*Equation 
4 
43,3,-1 
21,3,1 
174,3,-1 
188,3,1 
*Equation 
4 
357,3,-1 
375,3,1 
174,3,-1 
188,3,1 
*Equation 
4 
2,3,-1 
33,3,1 
174,3,-1 
188,3,1 
*Equation 
4 
217,3,-1 
269,3,1 
174,3,-1 
188,3,1 
*Equation 
4 
1,3,-1 
34,3,1 
174,3,-1 
188,3,1 
*Equation 
4 
345,3,-1 
355,3,1 
174,3,-1 
188,3,1 
*Equation 
4 
70,3,-1 
53,3,1 
174,3,-1 
188,3,1 
*Equation 
4 
344,3,-1 
309,3,1 
174,3,-1 
188,3,1 
*Equation 
4 
1185,3,-1 
1200,3,1 
174,3,-1 
188,3,1 
*Equation 
4 
600,3,-1 
376,3,1 
174,3,-1 
188,3,1 
*Equation 
4 
1045,3,-1 
856,3,1 
174,3,-1 
188,3,1 
*Equation 
4 
598,3,-1 
378,3,1 
174,3,-1 
188,3,1 
*Equation 
4 
1206,3,-1 
1193,3,1 
174,3,-1 
188,3,1 
*Equation 
4 
721,3,-1 
709,3,1 
174,3,-1 
188,3,1 
*Equation 
4 
1158,3,-1 
1147,3,1 
174,3,-1 
188,3,1 
*Equation 
4 
722,3,-1 
710,3,1 
174,3,-1 
188,3,1 
*Equation 
4 
1162,3,-1 
1171,3,1 
174,3,-1 
188,3,1 
