*Heading
** Job name: inputfile_model Model name: Model-1
** Generated by: Abaqus/CAE 6.14-2
*Preprint, echo=NO, model=NO, history=NO, contact=NO
**
** PARTS
**
*Part, name=Part-1
*Include, input=LeftToRight.inp
*Include, input=BottomToTop.inp
*Include, input=FrontToRear.inp
*Include, input=Edges.inp
*Include, input=Corners.inp
*End Part
**  
**
** ASSEMBLY
**
*Assembly, name=Assembly
**  
*Instance, name=Part-1-1, part=Part-1
*Node
      1,  0.379999995,  0.284999996,           0.
      2,  0.379999995,  0.189999998,           0.
      3,  0.284999996,  0.189999998,           0.
      4,  0.284999996,  0.284999996,           0.
      5,  0.379999995,  0.189999998, 0.0949999988
      6,  0.284999996,  0.189999998, 0.0949999988
      7,  0.284999996,  0.284999996, 0.0949999988
      8,  0.379999995,  0.284999996, 0.0949999988
      9,  0.379999995,  0.284999996,  0.284999996
     10,  0.379999995,  0.284999996,  0.189999998
     11,  0.284999996,  0.284999996,  0.189999998
     12,  0.284999996,  0.284999996,  0.284999996
     13,  0.379999995,  0.189999998,  0.284999996
     14,  0.379999995,  0.189999998,  0.189999998
     15,  0.284999996,  0.189999998,  0.189999998
     16,  0.284999996,  0.189999998,  0.284999996
     17,  0.379999995,           0.,  0.379999995
     18,  0.379999995,           0.,  0.474999994
     19,  0.284999996,           0.,  0.474999994
     20,  0.284999996,           0.,  0.379999995
     21,  0.379999995, 0.0949999988,  0.474999994
     22,  0.284999996, 0.0949999988,  0.474999994
     23,  0.284999996, 0.0949999988,  0.379999995
     24,  0.379999995, 0.0949999988,  0.379999995
     25,  0.379999995,  0.189999998,  0.379999995
     26,  0.379999995,  0.284999996,  0.379999995
     27,  0.284999996,  0.284999996,  0.379999995
     28,  0.284999996,  0.189999998,  0.379999995
     29,  0.379999995,           0.,  0.284999996
     30,  0.284999996,           0.,  0.284999996
     31,  0.284999996, 0.0949999988,  0.284999996
     32,  0.379999995, 0.0949999988,  0.284999996
     33,  0.379999995,  0.189999998,  0.474999994
     34,  0.379999995,  0.284999996,  0.474999994
     35,  0.284999996,  0.284999996,  0.474999994
     36,  0.284999996,  0.189999998,  0.474999994
     37,  0.379999995, 0.0949999988, 0.0949999988
     38,  0.284999996, 0.0949999988, 0.0949999988
     39,  0.379999995, 0.0949999988,  0.189999998
     40,  0.284999996, 0.0949999988,  0.189999998
     41,  0.379999995,           0.,  0.189999998
     42,  0.284999996,           0.,  0.189999998
     43,  0.379999995, 0.0949999988,           0.
     44,  0.379999995,           0.,           0.
     45,  0.284999996,           0.,           0.
     46,  0.284999996, 0.0949999988,           0.
     47,  0.379999995,           0., 0.0949999988
     48,  0.284999996,           0., 0.0949999988
     49,  0.379999995,  0.379999995,  0.379999995
     50,  0.379999995,  0.474999994,  0.379999995
     51,  0.284999996,  0.474999994,  0.379999995
     52,  0.284999996,  0.379999995,  0.379999995
     53,  0.379999995,  0.379999995,  0.474999994
     54,  0.379999995,  0.474999994,  0.474999994
     55,  0.284999996,  0.474999994,  0.474999994
     56,  0.284999996,  0.379999995,  0.474999994
     57,  0.379999995,  0.474999994,  0.284999996
     58,  0.284999996,  0.474999994,  0.284999996
     59,  0.379999995,  0.379999995,  0.284999996
     60,  0.284999996,  0.379999995,  0.284999996
     61,  0.379999995,  0.474999994,  0.189999998
     62,  0.284999996,  0.474999994,  0.189999998
     63,  0.379999995,  0.379999995,  0.189999998
     64,  0.284999996,  0.379999995,  0.189999998
     65,  0.379999995,  0.474999994, 0.0949999988
     66,  0.379999995,  0.474999994,           0.
     67,  0.284999996,  0.474999994,           0.
     68,  0.284999996,  0.474999994, 0.0949999988
     69,  0.379999995,  0.379999995, 0.0949999988
     70,  0.379999995,  0.379999995,           0.
     71,  0.284999996,  0.379999995,           0.
     72,  0.284999996,  0.379999995, 0.0949999988
     73,  0.474999994,  0.284999996, 0.0949999988
     74,  0.474999994,  0.379999995, 0.0949999988
     75,  0.474999994,  0.284999996,  0.189999998
     76,  0.474999994,  0.379999995,  0.189999998
     77,  0.474999994, 0.0949999988,  0.379999995
     78,  0.474999994,  0.189999998,  0.379999995
     79,  0.474999994, 0.0949999988,  0.474999994
     80,  0.474999994,  0.189999998,  0.474999994
     81,  0.474999994, 0.0949999988,  0.284999996
     82,  0.474999994,  0.189999998,  0.284999996
     83,  0.474999994,  0.189999998, 0.0949999988
     84,  0.474999994,  0.189999998,  0.189999998
     85,  0.474999994,  0.474999994,  0.189999998
     86,  0.474999994,  0.474999994, 0.0949999988
     87,  0.189999998,  0.189999998,           0.
     88,  0.189999998,  0.284999996,           0.
     89,  0.189999998,  0.189999998, 0.0949999988
     90,  0.189999998,  0.284999996, 0.0949999988
     91,  0.189999998,  0.284999996,  0.189999998
     92,  0.189999998,  0.284999996,  0.284999996
     93,  0.189999998,  0.189999998,  0.189999998
     94,  0.189999998,  0.189999998,  0.284999996
     95,  0.189999998,           0.,  0.474999994
     96,  0.189999998,           0.,  0.379999995
     97,  0.189999998, 0.0949999988,  0.474999994
     98,  0.189999998, 0.0949999988,  0.379999995
     99,  0.189999998,  0.284999996,  0.379999995
    100,  0.189999998,  0.189999998,  0.379999995
    101,  0.189999998,           0.,  0.284999996
    102,  0.189999998, 0.0949999988,  0.284999996
    103,  0.189999998,  0.284999996,  0.474999994
    104,  0.189999998,  0.189999998,  0.474999994
    105,  0.189999998, 0.0949999988, 0.0949999988
    106,  0.189999998, 0.0949999988,  0.189999998
    107,  0.189999998,           0.,  0.189999998
    108,  0.189999998,           0.,           0.
    109,  0.189999998, 0.0949999988,           0.
    110,  0.189999998,           0., 0.0949999988
    111,  0.189999998,  0.474999994,  0.379999995
    112,  0.189999998,  0.379999995,  0.379999995
    113,  0.189999998,  0.474999994,  0.474999994
    114,  0.189999998,  0.379999995,  0.474999994
    115,  0.189999998,  0.474999994,  0.284999996
    116,  0.189999998,  0.379999995,  0.284999996
    117,  0.189999998,  0.474999994,  0.189999998
    118,  0.189999998,  0.379999995,  0.189999998
    119,  0.189999998,  0.474999994,           0.
    120,  0.189999998,  0.474999994, 0.0949999988
    121,  0.189999998,  0.379999995,           0.
    122,  0.189999998,  0.379999995, 0.0949999988
    123,  0.474999994, 0.0949999988,  0.189999998
    124,  0.474999994,           0., 0.0949999988
    125,  0.474999994, 0.0949999988, 0.0949999988
    126,  0.474999994,           0.,  0.189999998
    127, 0.0949999988,  0.189999998,           0.
    128, 0.0949999988,  0.189999998, 0.0949999988
    129, 0.0949999988,  0.284999996,           0.
    130, 0.0949999988,  0.284999996, 0.0949999988
    131, 0.0949999988,  0.284999996,  0.284999996
    132, 0.0949999988,  0.189999998,  0.284999996
    133, 0.0949999988,  0.284999996,  0.189999998
    134, 0.0949999988,  0.189999998,  0.189999998
    135, 0.0949999988, 0.0949999988,  0.379999995
    136, 0.0949999988, 0.0949999988,  0.474999994
    137, 0.0949999988,           0.,  0.379999995
    138, 0.0949999988,           0.,  0.474999994
    139, 0.0949999988,  0.284999996,  0.379999995
    140, 0.0949999988,  0.189999998,  0.379999995
    141, 0.0949999988, 0.0949999988,  0.284999996
    142, 0.0949999988,           0.,  0.284999996
    143, 0.0949999988,  0.284999996,  0.474999994
    144, 0.0949999988,  0.189999998,  0.474999994
    145, 0.0949999988, 0.0949999988,  0.189999998
    146, 0.0949999988, 0.0949999988, 0.0949999988
    147, 0.0949999988,           0.,  0.189999998
    148, 0.0949999988,           0., 0.0949999988
    149, 0.0949999988, 0.0949999988,           0.
    150, 0.0949999988,           0.,           0.
    151, 0.0949999988,  0.474999994,  0.379999995
    152, 0.0949999988,  0.379999995,  0.379999995
    153, 0.0949999988,  0.474999994,  0.474999994
    154, 0.0949999988,  0.379999995,  0.474999994
    155, 0.0949999988,  0.379999995,  0.284999996
    156, 0.0949999988,  0.474999994,  0.284999996
    157, 0.0949999988,  0.379999995,  0.189999998
    158, 0.0949999988,  0.474999994,  0.189999998
    159, 0.0949999988,  0.379999995,           0.
    160, 0.0949999988,  0.474999994,           0.
    161, 0.0949999988,  0.379999995, 0.0949999988
    162, 0.0949999988,  0.474999994, 0.0949999988
    163,  0.474999994,  0.189999998,           0.
    164,  0.474999994, 0.0949999988,           0.
    165,           0.,  0.284999996, 0.0949999988
    166,           0.,  0.189999998, 0.0949999988
    167,           0.,  0.284999996,           0.
    168,           0.,  0.189999998,           0.
    169,           0.,  0.284999996,  0.284999996
    170,           0.,  0.189999998,  0.284999996
    171,           0.,  0.284999996,  0.189999998
    172,           0.,  0.189999998,  0.189999998
    173,           0., 0.0949999988,  0.474999994
    174,           0.,           0.,  0.474999994
    175,           0., 0.0949999988,  0.379999995
    176,           0.,           0.,  0.379999995
    177,           0.,  0.284999996,  0.379999995
    178,           0.,  0.189999998,  0.379999995
    179,           0., 0.0949999988,  0.284999996
    180,           0.,           0.,  0.284999996
    181,           0.,  0.284999996,  0.474999994
    182,           0.,  0.189999998,  0.474999994
    183,           0., 0.0949999988,  0.189999998
    184,           0., 0.0949999988, 0.0949999988
    185,           0.,           0.,  0.189999998
    186,           0.,           0., 0.0949999988
    187,           0., 0.0949999988,           0.
    188,           0.,           0.,           0.
    189,           0.,  0.474999994,  0.379999995
    190,           0.,  0.379999995,  0.379999995
    191,           0.,  0.474999994,  0.474999994
    192,           0.,  0.379999995,  0.474999994
    193,           0.,  0.474999994,  0.284999996
    194,           0.,  0.379999995,  0.284999996
    195,           0.,  0.474999994,  0.189999998
    196,           0.,  0.379999995,  0.189999998
    197,           0.,  0.379999995,           0.
    198,           0.,  0.474999994,           0.
    199,           0.,  0.379999995, 0.0949999988
    200,           0.,  0.474999994, 0.0949999988
    201,  0.474999994,  0.379999995,  0.379999995
    202,  0.474999994,  0.379999995,  0.474999994
    203,  0.474999994,  0.284999996,  0.474999994
    204,  0.474999994,  0.284999996,  0.379999995
    205,  0.474999994,  0.379999995,  0.284999996
    206,  0.474999994,  0.284999996,  0.284999996
    207,  0.474999994,  0.379999995,           0.
    208,  0.474999994,  0.284999996,           0.
    209,  0.474999994,  0.474999994,           0.
    210,  0.474999994,  0.474999994,  0.284999996
    211,  0.474999994,  0.474999994,  0.379999995
    212,  0.474999994,  0.474999994,  0.474999994
    213,  0.474999994,           0.,           0.
    214,  0.474999994,           0.,  0.284999996
    215,  0.474999994,           0.,  0.379999995
    216,  0.474999994,           0.,  0.474999994
    217,  0.379999995,  0.237499997,           0.
    218,  0.332500011,  0.189999998,           0.
    219,  0.284999996,  0.237499997,           0.
    220,  0.332500011,  0.284999996,           0.
    221,  0.379999995,  0.237499997, 0.0949999988
    222,  0.332500011,  0.189999998, 0.0949999988
    223,  0.284999996,  0.237499997, 0.0949999988
    224,  0.332500011,  0.284999996, 0.0949999988
    225,  0.284999996,  0.284999996, 0.0474999994
    226,  0.379999995,  0.284999996, 0.0474999994
    227,  0.284999996,  0.189999998, 0.0474999994
    228,  0.379999995,  0.189999998, 0.0474999994
    229,  0.379999995,  0.284999996,  0.237499997
    230,  0.332500011,  0.284999996,  0.189999998
    231,  0.284999996,  0.284999996,  0.237499997
    232,  0.332500011,  0.284999996,  0.284999996
    233,  0.379999995,  0.189999998,  0.237499997
    234,  0.332500011,  0.189999998,  0.189999998
    235,  0.284999996,  0.189999998,  0.237499997
    236,  0.332500011,  0.189999998,  0.284999996
    237,  0.284999996,  0.237499997,  0.284999996
    238,  0.379999995,  0.237499997,  0.284999996
    239,  0.284999996,  0.237499997,  0.189999998
    240,  0.379999995,  0.237499997,  0.189999998
    241,  0.379999995,           0.,   0.42750001
    242,  0.332500011,           0.,  0.474999994
    243,  0.284999996,           0.,   0.42750001
    244,  0.332500011,           0.,  0.379999995
    245,  0.379999995, 0.0949999988,   0.42750001
    246,  0.332500011, 0.0949999988,  0.474999994
    247,  0.284999996, 0.0949999988,   0.42750001
    248,  0.332500011, 0.0949999988,  0.379999995
    249,  0.284999996, 0.0474999994,  0.379999995
    250,  0.379999995, 0.0474999994,  0.379999995
    251,  0.284999996, 0.0474999994,  0.474999994
    252,  0.379999995, 0.0474999994,  0.474999994
    253,  0.379999995,  0.237499997,  0.379999995
    254,  0.332500011,  0.284999996,  0.379999995
    255,  0.284999996,  0.237499997,  0.379999995
    256,  0.332500011,  0.189999998,  0.379999995
    257,  0.284999996,  0.189999998,  0.332500011
    258,  0.379999995,  0.189999998,  0.332500011
    259,  0.284999996,  0.284999996,  0.332500011
    260,  0.379999995,  0.284999996,  0.332500011
    261,  0.379999995,           0.,  0.332500011
    262,  0.284999996,           0.,  0.332500011
    263,  0.332500011,           0.,  0.284999996
    264,  0.379999995, 0.0949999988,  0.332500011
    265,  0.284999996, 0.0949999988,  0.332500011
    266,  0.332500011, 0.0949999988,  0.284999996
    267,  0.284999996, 0.0474999994,  0.284999996
    268,  0.379999995, 0.0474999994,  0.284999996
    269,  0.379999995,  0.237499997,  0.474999994
    270,  0.332500011,  0.284999996,  0.474999994
    271,  0.284999996,  0.237499997,  0.474999994
    272,  0.332500011,  0.189999998,  0.474999994
    273,  0.284999996,  0.189999998,   0.42750001
    274,  0.379999995,  0.189999998,   0.42750001
    275,  0.284999996,  0.284999996,   0.42750001
    276,  0.379999995,  0.284999996,   0.42750001
    277,  0.379999995,  0.142499998, 0.0949999988
    278,  0.284999996,  0.142499998, 0.0949999988
    279,  0.332500011, 0.0949999988, 0.0949999988
    280,  0.379999995,  0.142499998,  0.189999998
    281,  0.284999996,  0.142499998,  0.189999998
    282,  0.332500011, 0.0949999988,  0.189999998
    283,  0.284999996, 0.0949999988,  0.142499998
    284,  0.379999995, 0.0949999988,  0.142499998
    285,  0.284999996,  0.189999998,  0.142499998
    286,  0.379999995,  0.189999998,  0.142499998
    287,  0.379999995,           0.,  0.237499997
    288,  0.284999996,           0.,  0.237499997
    289,  0.332500011,           0.,  0.189999998
    290,  0.379999995, 0.0949999988,  0.237499997
    291,  0.284999996, 0.0949999988,  0.237499997
    292,  0.284999996, 0.0474999994,  0.189999998
    293,  0.379999995, 0.0474999994,  0.189999998
    294,  0.379999995, 0.0474999994,           0.
    295,  0.332500011,           0.,           0.
    296,  0.284999996, 0.0474999994,           0.
    297,  0.332500011, 0.0949999988,           0.
    298,  0.379999995, 0.0474999994, 0.0949999988
    299,  0.332500011,           0., 0.0949999988
    300,  0.284999996, 0.0474999994, 0.0949999988
    301,  0.284999996, 0.0949999988, 0.0474999994
    302,  0.379999995, 0.0949999988, 0.0474999994
    303,  0.284999996,           0., 0.0474999994
    304,  0.379999995,           0., 0.0474999994
    305,  0.379999995,   0.42750001,  0.379999995
    306,  0.332500011,  0.474999994,  0.379999995
    307,  0.284999996,   0.42750001,  0.379999995
    308,  0.332500011,  0.379999995,  0.379999995
    309,  0.379999995,   0.42750001,  0.474999994
    310,  0.332500011,  0.474999994,  0.474999994
    311,  0.284999996,   0.42750001,  0.474999994
    312,  0.332500011,  0.379999995,  0.474999994
    313,  0.284999996,  0.379999995,   0.42750001
    314,  0.379999995,  0.379999995,   0.42750001
    315,  0.284999996,  0.474999994,   0.42750001
    316,  0.379999995,  0.474999994,   0.42750001
    317,  0.379999995,  0.474999994,  0.332500011
    318,  0.332500011,  0.474999994,  0.284999996
    319,  0.284999996,  0.474999994,  0.332500011
    320,  0.379999995,  0.379999995,  0.332500011
    321,  0.332500011,  0.379999995,  0.284999996
    322,  0.284999996,  0.379999995,  0.332500011
    323,  0.284999996,   0.42750001,  0.284999996
    324,  0.379999995,   0.42750001,  0.284999996
    325,  0.379999995,  0.474999994,  0.237499997
    326,  0.332500011,  0.474999994,  0.189999998
    327,  0.284999996,  0.474999994,  0.237499997
    328,  0.379999995,  0.379999995,  0.237499997
    329,  0.332500011,  0.379999995,  0.189999998
    330,  0.284999996,  0.379999995,  0.237499997
    331,  0.284999996,   0.42750001,  0.189999998
    332,  0.379999995,   0.42750001,  0.189999998
    333,  0.379999995,  0.474999994, 0.0474999994
    334,  0.332500011,  0.474999994,           0.
    335,  0.284999996,  0.474999994, 0.0474999994
    336,  0.332500011,  0.474999994, 0.0949999988
    337,  0.379999995,  0.379999995, 0.0474999994
    338,  0.332500011,  0.379999995,           0.
    339,  0.284999996,  0.379999995, 0.0474999994
    340,  0.332500011,  0.379999995, 0.0949999988
    341,  0.284999996,   0.42750001, 0.0949999988
    342,  0.379999995,   0.42750001, 0.0949999988
    343,  0.284999996,   0.42750001,           0.
    344,  0.379999995,   0.42750001,           0.
    345,  0.379999995,  0.332500011,           0.
    346,  0.284999996,  0.332500011,           0.
    347,  0.379999995,  0.332500011, 0.0949999988
    348,  0.284999996,  0.332500011, 0.0949999988
    349,  0.284999996,  0.332500011,  0.284999996
    350,  0.379999995,  0.332500011,  0.284999996
    351,  0.284999996,  0.332500011,  0.189999998
    352,  0.379999995,  0.332500011,  0.189999998
    353,  0.284999996,  0.332500011,  0.379999995
    354,  0.379999995,  0.332500011,  0.379999995
    355,  0.379999995,  0.332500011,  0.474999994
    356,  0.284999996,  0.332500011,  0.474999994
    357,  0.379999995,  0.142499998,           0.
    358,  0.284999996,  0.142499998,           0.
    359,  0.284999996,           0.,  0.142499998
    360,  0.379999995,           0.,  0.142499998
    361,   0.42750001,  0.284999996, 0.0949999988
    362,  0.474999994,  0.332500011, 0.0949999988
    363,   0.42750001,  0.379999995, 0.0949999988
    364,   0.42750001,  0.284999996,  0.189999998
    365,  0.474999994,  0.332500011,  0.189999998
    366,   0.42750001,  0.379999995,  0.189999998
    367,  0.474999994,  0.379999995,  0.142499998
    368,  0.379999995,  0.379999995,  0.142499998
    369,  0.474999994,  0.284999996,  0.142499998
    370,  0.379999995,  0.284999996,  0.142499998
    371,  0.379999995,  0.142499998,  0.379999995
    372,   0.42750001, 0.0949999988,  0.379999995
    373,  0.474999994,  0.142499998,  0.379999995
    374,   0.42750001,  0.189999998,  0.379999995
    375,  0.379999995,  0.142499998,  0.474999994
    376,   0.42750001, 0.0949999988,  0.474999994
    377,  0.474999994,  0.142499998,  0.474999994
    378,   0.42750001,  0.189999998,  0.474999994
    379,  0.474999994,  0.189999998,   0.42750001
    380,  0.474999994, 0.0949999988,   0.42750001
    381,  0.379999995,  0.142499998,  0.284999996
    382,   0.42750001, 0.0949999988,  0.284999996
    383,  0.474999994,  0.142499998,  0.284999996
    384,   0.42750001,  0.189999998,  0.284999996
    385,  0.474999994,  0.189999998,  0.332500011
    386,  0.474999994, 0.0949999988,  0.332500011
    387,  0.284999996,  0.142499998,  0.284999996
    388,   0.42750001,  0.189999998, 0.0949999988
    389,  0.474999994,  0.237499997, 0.0949999988
    390,   0.42750001,  0.189999998,  0.189999998
    391,  0.474999994,  0.237499997,  0.189999998
    392,  0.474999994,  0.189999998,  0.142499998
    393,  0.474999994,   0.42750001,  0.189999998
    394,   0.42750001,  0.474999994,  0.189999998
    395,  0.474999994,   0.42750001, 0.0949999988
    396,   0.42750001,  0.474999994, 0.0949999988
    397,  0.474999994,  0.474999994,  0.142499998
    398,  0.379999995,  0.474999994,  0.142499998
    399,  0.237499997,  0.189999998,           0.
    400,  0.189999998,  0.237499997,           0.
    401,  0.237499997,  0.284999996,           0.
    402,  0.237499997,  0.189999998, 0.0949999988
    403,  0.189999998,  0.237499997, 0.0949999988
    404,  0.237499997,  0.284999996, 0.0949999988
    405,  0.189999998,  0.284999996, 0.0474999994
    406,  0.189999998,  0.189999998, 0.0474999994
    407,  0.237499997,  0.284999996,  0.189999998
    408,  0.189999998,  0.284999996,  0.237499997
    409,  0.237499997,  0.284999996,  0.284999996
    410,  0.237499997,  0.189999998,  0.189999998
    411,  0.189999998,  0.189999998,  0.237499997
    412,  0.237499997,  0.189999998,  0.284999996
    413,  0.189999998,  0.237499997,  0.284999996
    414,  0.189999998,  0.237499997,  0.189999998
    415,  0.237499997,           0.,  0.474999994
    416,  0.189999998,           0.,   0.42750001
    417,  0.237499997,           0.,  0.379999995
    418,  0.237499997, 0.0949999988,  0.474999994
    419,  0.189999998, 0.0949999988,   0.42750001
    420,  0.237499997, 0.0949999988,  0.379999995
    421,  0.189999998, 0.0474999994,  0.379999995
    422,  0.189999998, 0.0474999994,  0.474999994
    423,  0.237499997,  0.284999996,  0.379999995
    424,  0.189999998,  0.237499997,  0.379999995
    425,  0.237499997,  0.189999998,  0.379999995
    426,  0.189999998,  0.189999998,  0.332500011
    427,  0.189999998,  0.284999996,  0.332500011
    428,  0.189999998,           0.,  0.332500011
    429,  0.237499997,           0.,  0.284999996
    430,  0.189999998, 0.0949999988,  0.332500011
    431,  0.237499997, 0.0949999988,  0.284999996
    432,  0.189999998, 0.0474999994,  0.284999996
    433,  0.237499997,  0.284999996,  0.474999994
    434,  0.189999998,  0.237499997,  0.474999994
    435,  0.237499997,  0.189999998,  0.474999994
    436,  0.189999998,  0.189999998,   0.42750001
    437,  0.189999998,  0.284999996,   0.42750001
    438,  0.189999998,  0.142499998, 0.0949999988
    439,  0.237499997, 0.0949999988, 0.0949999988
    440,  0.189999998,  0.142499998,  0.189999998
    441,  0.237499997, 0.0949999988,  0.189999998
    442,  0.189999998, 0.0949999988,  0.142499998
    443,  0.189999998,  0.189999998,  0.142499998
    444,  0.189999998,           0.,  0.237499997
    445,  0.237499997,           0.,  0.189999998
    446,  0.189999998, 0.0949999988,  0.237499997
    447,  0.189999998, 0.0474999994,  0.189999998
    448,  0.237499997,           0.,           0.
    449,  0.189999998, 0.0474999994,           0.
    450,  0.237499997, 0.0949999988,           0.
    451,  0.237499997,           0., 0.0949999988
    452,  0.189999998, 0.0474999994, 0.0949999988
    453,  0.189999998, 0.0949999988, 0.0474999994
    454,  0.189999998,           0., 0.0474999994
    455,  0.237499997,  0.474999994,  0.379999995
    456,  0.189999998,   0.42750001,  0.379999995
    457,  0.237499997,  0.379999995,  0.379999995
    458,  0.237499997,  0.474999994,  0.474999994
    459,  0.189999998,   0.42750001,  0.474999994
    460,  0.237499997,  0.379999995,  0.474999994
    461,  0.189999998,  0.379999995,   0.42750001
    462,  0.189999998,  0.474999994,   0.42750001
    463,  0.237499997,  0.474999994,  0.284999996
    464,  0.189999998,  0.474999994,  0.332500011
    465,  0.237499997,  0.379999995,  0.284999996
    466,  0.189999998,  0.379999995,  0.332500011
    467,  0.189999998,   0.42750001,  0.284999996
    468,  0.237499997,  0.474999994,  0.189999998
    469,  0.189999998,  0.474999994,  0.237499997
    470,  0.237499997,  0.379999995,  0.189999998
    471,  0.189999998,  0.379999995,  0.237499997
    472,  0.189999998,   0.42750001,  0.189999998
    473,  0.237499997,  0.474999994,           0.
    474,  0.189999998,  0.474999994, 0.0474999994
    475,  0.237499997,  0.474999994, 0.0949999988
    476,  0.237499997,  0.379999995,           0.
    477,  0.189999998,  0.379999995, 0.0474999994
    478,  0.237499997,  0.379999995, 0.0949999988
    479,  0.189999998,   0.42750001, 0.0949999988
    480,  0.189999998,   0.42750001,           0.
    481,  0.189999998,  0.332500011,           0.
    482,  0.189999998,  0.332500011, 0.0949999988
    483,  0.189999998,  0.332500011,  0.284999996
    484,  0.189999998,  0.332500011,  0.189999998
    485,  0.189999998,  0.332500011,  0.379999995
    486,  0.189999998,  0.332500011,  0.474999994
    487,  0.284999996,  0.379999995,  0.142499998
    488,  0.284999996,  0.474999994,  0.142499998
    489,  0.284999996,  0.284999996,  0.142499998
    490,   0.42750001, 0.0949999988,  0.189999998
    491,  0.474999994,  0.142499998,  0.189999998
    492,  0.474999994,  0.189999998,  0.237499997
    493,  0.474999994, 0.0949999988,  0.237499997
    494,  0.284999996,  0.142499998,  0.379999995
    495,  0.284999996,  0.142499998,  0.474999994
    496,   0.42750001,           0., 0.0949999988
    497,  0.474999994, 0.0474999994, 0.0949999988
    498,   0.42750001, 0.0949999988, 0.0949999988
    499,   0.42750001,           0.,  0.189999998
    500,  0.474999994, 0.0474999994,  0.189999998
    501,  0.474999994, 0.0949999988,  0.142499998
    502,  0.474999994,           0.,  0.142499998
    503,  0.189999998,  0.142499998,           0.
    504,  0.142499998,  0.189999998,           0.
    505, 0.0949999988,  0.189999998, 0.0474999994
    506,  0.142499998,  0.189999998, 0.0949999988
    507,  0.142499998,  0.284999996,           0.
    508, 0.0949999988,  0.284999996, 0.0474999994
    509,  0.142499998,  0.284999996, 0.0949999988
    510, 0.0949999988,  0.237499997, 0.0949999988
    511, 0.0949999988,  0.237499997,           0.
    512,  0.142499998,  0.284999996,  0.284999996
    513, 0.0949999988,  0.237499997,  0.284999996
    514,  0.142499998,  0.189999998,  0.284999996
    515,  0.142499998,  0.284999996,  0.189999998
    516, 0.0949999988,  0.237499997,  0.189999998
    517,  0.142499998,  0.189999998,  0.189999998
    518, 0.0949999988,  0.189999998,  0.237499997
    519, 0.0949999988,  0.284999996,  0.237499997
    520,  0.142499998, 0.0949999988,  0.379999995
    521, 0.0949999988, 0.0949999988,   0.42750001
    522,  0.142499998, 0.0949999988,  0.474999994
    523,  0.142499998,           0.,  0.379999995
    524, 0.0949999988,           0.,   0.42750001
    525,  0.142499998,           0.,  0.474999994
    526, 0.0949999988, 0.0474999994,  0.474999994
    527, 0.0949999988, 0.0474999994,  0.379999995
    528,  0.142499998,  0.284999996,  0.379999995
    529, 0.0949999988,  0.237499997,  0.379999995
    530,  0.142499998,  0.189999998,  0.379999995
    531, 0.0949999988,  0.189999998,  0.332500011
    532, 0.0949999988,  0.284999996,  0.332500011
    533,  0.142499998, 0.0949999988,  0.284999996
    534, 0.0949999988, 0.0949999988,  0.332500011
    535,  0.142499998,           0.,  0.284999996
    536, 0.0949999988,           0.,  0.332500011
    537, 0.0949999988, 0.0474999994,  0.284999996
    538,  0.142499998,  0.284999996,  0.474999994
    539, 0.0949999988,  0.237499997,  0.474999994
    540,  0.142499998,  0.189999998,  0.474999994
    541, 0.0949999988,  0.189999998,   0.42750001
    542, 0.0949999988,  0.284999996,   0.42750001
    543, 0.0949999988,  0.142499998,  0.189999998
    544,  0.142499998, 0.0949999988,  0.189999998
    545, 0.0949999988,  0.142499998, 0.0949999988
    546,  0.142499998, 0.0949999988, 0.0949999988
    547, 0.0949999988, 0.0949999988,  0.142499998
    548, 0.0949999988,  0.189999998,  0.142499998
    549, 0.0949999988, 0.0949999988,  0.237499997
    550,  0.142499998,           0.,  0.189999998
    551, 0.0949999988,           0.,  0.237499997
    552, 0.0949999988, 0.0474999994,  0.189999998
    553, 0.0949999988, 0.0474999994, 0.0949999988
    554,  0.142499998,           0., 0.0949999988
    555,  0.142499998, 0.0949999988,           0.
    556, 0.0949999988, 0.0474999994,           0.
    557,  0.142499998,           0.,           0.
    558, 0.0949999988,           0., 0.0474999994
    559, 0.0949999988, 0.0949999988, 0.0474999994
    560,  0.142499998,  0.474999994,  0.379999995
    561, 0.0949999988,   0.42750001,  0.379999995
    562,  0.142499998,  0.379999995,  0.379999995
    563,  0.142499998,  0.474999994,  0.474999994
    564, 0.0949999988,   0.42750001,  0.474999994
    565,  0.142499998,  0.379999995,  0.474999994
    566, 0.0949999988,  0.379999995,   0.42750001
    567, 0.0949999988,  0.474999994,   0.42750001
    568,  0.142499998,  0.379999995,  0.284999996
    569, 0.0949999988,  0.379999995,  0.332500011
    570,  0.142499998,  0.474999994,  0.284999996
    571, 0.0949999988,  0.474999994,  0.332500011
    572, 0.0949999988,   0.42750001,  0.284999996
    573,  0.142499998,  0.379999995,  0.189999998
    574, 0.0949999988,  0.379999995,  0.237499997
    575,  0.142499998,  0.474999994,  0.189999998
    576, 0.0949999988,  0.474999994,  0.237499997
    577, 0.0949999988,   0.42750001,  0.189999998
    578,  0.142499998,  0.379999995,           0.
    579, 0.0949999988,   0.42750001,           0.
    580,  0.142499998,  0.474999994,           0.
    581,  0.142499998,  0.379999995, 0.0949999988
    582, 0.0949999988,   0.42750001, 0.0949999988
    583,  0.142499998,  0.474999994, 0.0949999988
    584, 0.0949999988,  0.474999994, 0.0474999994
    585, 0.0949999988,  0.379999995, 0.0474999994
    586, 0.0949999988,  0.332500011, 0.0949999988
    587, 0.0949999988,  0.332500011,           0.
    588, 0.0949999988,  0.332500011,  0.284999996
    589, 0.0949999988,  0.332500011,  0.189999998
    590, 0.0949999988,  0.332500011,  0.379999995
    591, 0.0949999988,  0.332500011,  0.474999994
    592, 0.0949999988,  0.379999995,  0.142499998
    593,  0.189999998,  0.379999995,  0.142499998
    594, 0.0949999988,  0.474999994,  0.142499998
    595,  0.189999998,  0.474999994,  0.142499998
    596, 0.0949999988,  0.284999996,  0.142499998
    597,  0.189999998,  0.284999996,  0.142499998
    598,   0.42750001,  0.189999998,           0.
    599,  0.474999994,  0.142499998,           0.
    600,   0.42750001, 0.0949999988,           0.
    601,  0.474999994,  0.142499998, 0.0949999988
    602,  0.474999994, 0.0949999988, 0.0474999994
    603,  0.474999994,  0.189999998, 0.0474999994
    604,  0.189999998,  0.142499998,  0.284999996
    605, 0.0949999988,  0.142499998,  0.284999996
    606,  0.189999998,  0.142499998,  0.379999995
    607, 0.0949999988,  0.142499998,  0.379999995
    608,  0.189999998,  0.142499998,  0.474999994
    609, 0.0949999988,  0.142499998,  0.474999994
    610, 0.0949999988,           0.,  0.142499998
    611,  0.189999998,           0.,  0.142499998
    612, 0.0474999994,  0.284999996, 0.0949999988
    613,           0.,  0.237499997, 0.0949999988
    614, 0.0474999994,  0.189999998, 0.0949999988
    615, 0.0474999994,  0.284999996,           0.
    616,           0.,  0.237499997,           0.
    617, 0.0474999994,  0.189999998,           0.
    618,           0.,  0.189999998, 0.0474999994
    619,           0.,  0.284999996, 0.0474999994
    620, 0.0474999994,  0.284999996,  0.284999996
    621,           0.,  0.237499997,  0.284999996
    622, 0.0474999994,  0.189999998,  0.284999996
    623, 0.0474999994,  0.284999996,  0.189999998
    624,           0.,  0.237499997,  0.189999998
    625, 0.0474999994,  0.189999998,  0.189999998
    626,           0.,  0.189999998,  0.237499997
    627,           0.,  0.284999996,  0.237499997
    628, 0.0474999994, 0.0949999988,  0.474999994
    629,           0., 0.0474999994,  0.474999994
    630, 0.0474999994,           0.,  0.474999994
    631, 0.0474999994, 0.0949999988,  0.379999995
    632,           0., 0.0474999994,  0.379999995
    633, 0.0474999994,           0.,  0.379999995
    634,           0.,           0.,   0.42750001
    635,           0., 0.0949999988,   0.42750001
    636, 0.0474999994,  0.284999996,  0.379999995
    637,           0.,  0.237499997,  0.379999995
    638, 0.0474999994,  0.189999998,  0.379999995
    639,           0.,  0.189999998,  0.332500011
    640,           0.,  0.284999996,  0.332500011
    641, 0.0474999994, 0.0949999988,  0.284999996
    642,           0., 0.0474999994,  0.284999996
    643, 0.0474999994,           0.,  0.284999996
    644,           0.,           0.,  0.332500011
    645,           0., 0.0949999988,  0.332500011
    646, 0.0474999994,  0.284999996,  0.474999994
    647,           0.,  0.237499997,  0.474999994
    648, 0.0474999994,  0.189999998,  0.474999994
    649,           0.,  0.189999998,   0.42750001
    650,           0.,  0.284999996,   0.42750001
    651,           0.,  0.142499998,  0.189999998
    652, 0.0474999994, 0.0949999988,  0.189999998
    653,           0.,  0.142499998, 0.0949999988
    654, 0.0474999994, 0.0949999988, 0.0949999988
    655,           0., 0.0949999988,  0.142499998
    656,           0.,  0.189999998,  0.142499998
    657,           0., 0.0474999994,  0.189999998
    658, 0.0474999994,           0.,  0.189999998
    659,           0.,           0.,  0.237499997
    660,           0., 0.0949999988,  0.237499997
    661,           0., 0.0474999994, 0.0949999988
    662, 0.0474999994,           0., 0.0949999988
    663, 0.0474999994, 0.0949999988,           0.
    664,           0., 0.0474999994,           0.
    665, 0.0474999994,           0.,           0.
    666,           0.,           0., 0.0474999994
    667,           0., 0.0949999988, 0.0474999994
    668, 0.0949999988,  0.142499998,           0.
    669, 0.0474999994,  0.474999994,  0.379999995
    670,           0.,   0.42750001,  0.379999995
    671, 0.0474999994,  0.379999995,  0.379999995
    672, 0.0474999994,  0.474999994,  0.474999994
    673,           0.,   0.42750001,  0.474999994
    674, 0.0474999994,  0.379999995,  0.474999994
    675,           0.,  0.379999995,   0.42750001
    676,           0.,  0.474999994,   0.42750001
    677, 0.0474999994,  0.474999994,  0.284999996
    678,           0.,   0.42750001,  0.284999996
    679, 0.0474999994,  0.379999995,  0.284999996
    680,           0.,  0.379999995,  0.332500011
    681,           0.,  0.474999994,  0.332500011
    682, 0.0474999994,  0.474999994,  0.189999998
    683,           0.,   0.42750001,  0.189999998
    684, 0.0474999994,  0.379999995,  0.189999998
    685,           0.,  0.379999995,  0.237499997
    686,           0.,  0.474999994,  0.237499997
    687, 0.0474999994,  0.379999995,           0.
    688,           0.,   0.42750001,           0.
    689, 0.0474999994,  0.474999994,           0.
    690, 0.0474999994,  0.379999995, 0.0949999988
    691,           0.,   0.42750001, 0.0949999988
    692, 0.0474999994,  0.474999994, 0.0949999988
    693,           0.,  0.474999994, 0.0474999994
    694,           0.,  0.379999995, 0.0474999994
    695,           0.,  0.332500011, 0.0949999988
    696,           0.,  0.332500011,           0.
    697,           0.,  0.332500011,  0.284999996
    698,           0.,  0.332500011,  0.189999998
    699,           0.,  0.332500011,  0.379999995
    700,           0.,  0.332500011,  0.474999994
    701,           0.,  0.379999995,  0.142499998
    702,           0.,  0.474999994,  0.142499998
    703,  0.474999994,  0.379999995,   0.42750001
    704,  0.474999994,  0.332500011,  0.474999994
    705,  0.474999994,  0.284999996,   0.42750001
    706,  0.474999994,  0.332500011,  0.379999995
    707,   0.42750001,  0.284999996,  0.379999995
    708,   0.42750001,  0.379999995,  0.379999995
    709,   0.42750001,  0.284999996,  0.474999994
    710,   0.42750001,  0.379999995,  0.474999994
    711,  0.474999994,  0.379999995,  0.332500011
    712,  0.474999994,  0.284999996,  0.332500011
    713,  0.474999994,  0.332500011,  0.284999996
    714,   0.42750001,  0.284999996,  0.284999996
    715,   0.42750001,  0.379999995,  0.284999996
    716,  0.474999994,  0.379999995,  0.237499997
    717,  0.474999994,  0.284999996,  0.237499997
    718,  0.474999994,  0.379999995, 0.0474999994
    719,  0.474999994,  0.284999996, 0.0474999994
    720,  0.474999994,  0.332500011,           0.
    721,   0.42750001,  0.284999996,           0.
    722,   0.42750001,  0.379999995,           0.
    723,  0.474999994,   0.42750001,           0.
    724,  0.474999994,  0.474999994, 0.0474999994
    725,   0.42750001,  0.474999994,           0.
    726,  0.474999994,  0.474999994,  0.237499997
    727,  0.474999994,   0.42750001,  0.284999996
    728,   0.42750001,  0.474999994,  0.284999996
    729,  0.474999994,  0.474999994,  0.332500011
    730,  0.474999994,   0.42750001,  0.379999995
    731,   0.42750001,  0.474999994,  0.379999995
    732,  0.474999994,  0.474999994,   0.42750001
    733,  0.474999994,   0.42750001,  0.474999994
    734,   0.42750001,  0.474999994,  0.474999994
    735,           0.,  0.284999996,  0.142499998
    736,           0.,  0.142499998,           0.
    737,           0.,  0.142499998,  0.284999996
    738,           0.,  0.142499998,  0.379999995
    739,           0.,  0.142499998,  0.474999994
    740,  0.474999994,           0., 0.0474999994
    741,  0.474999994, 0.0474999994,           0.
    742,   0.42750001,           0.,           0.
    743,  0.474999994, 0.0474999994,  0.284999996
    744,  0.474999994,           0.,  0.237499997
    745,   0.42750001,           0.,  0.284999996
    746,  0.474999994,  0.237499997,  0.474999994
    747,  0.474999994,  0.237499997,  0.379999995
    748,  0.474999994, 0.0474999994,  0.379999995
    749,  0.474999994,           0.,  0.332500011
    750,   0.42750001,           0.,  0.379999995
    751,  0.474999994,  0.237499997,  0.284999996
    752,  0.474999994, 0.0474999994,  0.474999994
    753,  0.474999994,           0.,   0.42750001
    754,   0.42750001,           0.,  0.474999994
    755,           0.,           0.,  0.142499998
    756,  0.474999994,  0.237499997,           0.
    757,  0.332500011,  0.237499997,           0.
    758,  0.332500011,  0.237499997, 0.0949999988
    759,  0.332500011,  0.284999996, 0.0474999994
    760,  0.332500011,  0.189999998, 0.0474999994
    761,  0.379999995,  0.237499997, 0.0474999994
    762,  0.284999996,  0.237499997, 0.0474999994
    763,  0.332500011,  0.284999996,  0.237499997
    764,  0.332500011,  0.189999998,  0.237499997
    765,  0.332500011,  0.237499997,  0.284999996
    766,  0.332500011,  0.237499997,  0.189999998
    767,  0.379999995,  0.237499997,  0.237499997
    768,  0.284999996,  0.237499997,  0.237499997
    769,  0.332500011,           0.,   0.42750001
    770,  0.332500011, 0.0949999988,   0.42750001
    771,  0.332500011, 0.0474999994,  0.379999995
    772,  0.332500011, 0.0474999994,  0.474999994
    773,  0.379999995, 0.0474999994,   0.42750001
    774,  0.284999996, 0.0474999994,   0.42750001
    775,  0.332500011,  0.237499997,  0.379999995
    776,  0.332500011,  0.189999998,  0.332500011
    777,  0.332500011,  0.284999996,  0.332500011
    778,  0.379999995,  0.237499997,  0.332500011
    779,  0.284999996,  0.237499997,  0.332500011
    780,  0.332500011,           0.,  0.332500011
    781,  0.332500011, 0.0949999988,  0.332500011
    782,  0.332500011, 0.0474999994,  0.284999996
    783,  0.379999995, 0.0474999994,  0.332500011
    784,  0.284999996, 0.0474999994,  0.332500011
    785,  0.332500011,  0.237499997,  0.474999994
    786,  0.332500011,  0.189999998,   0.42750001
    787,  0.332500011,  0.284999996,   0.42750001
    788,  0.379999995,  0.237499997,   0.42750001
    789,  0.284999996,  0.237499997,   0.42750001
    790,  0.332500011,  0.142499998, 0.0949999988
    791,  0.332500011,  0.142499998,  0.189999998
    792,  0.332500011, 0.0949999988,  0.142499998
    793,  0.332500011,  0.189999998,  0.142499998
    794,  0.379999995,  0.142499998,  0.142499998
    795,  0.284999996,  0.142499998,  0.142499998
    796,  0.332500011,           0.,  0.237499997
    797,  0.332500011, 0.0949999988,  0.237499997
    798,  0.332500011, 0.0474999994,  0.189999998
    799,  0.379999995, 0.0474999994,  0.237499997
    800,  0.284999996, 0.0474999994,  0.237499997
    801,  0.332500011, 0.0474999994,           0.
    802,  0.332500011, 0.0474999994, 0.0949999988
    803,  0.332500011, 0.0949999988, 0.0474999994
    804,  0.332500011,           0., 0.0474999994
    805,  0.379999995, 0.0474999994, 0.0474999994
    806,  0.284999996, 0.0474999994, 0.0474999994
    807,  0.332500011,   0.42750001,  0.379999995
    808,  0.332500011,   0.42750001,  0.474999994
    809,  0.332500011,  0.379999995,   0.42750001
    810,  0.332500011,  0.474999994,   0.42750001
    811,  0.379999995,   0.42750001,   0.42750001
    812,  0.284999996,   0.42750001,   0.42750001
    813,  0.332500011,  0.474999994,  0.332500011
    814,  0.332500011,  0.379999995,  0.332500011
    815,  0.332500011,   0.42750001,  0.284999996
    816,  0.379999995,   0.42750001,  0.332500011
    817,  0.284999996,   0.42750001,  0.332500011
    818,  0.332500011,  0.474999994,  0.237499997
    819,  0.332500011,  0.379999995,  0.237499997
    820,  0.332500011,   0.42750001,  0.189999998
    821,  0.379999995,   0.42750001,  0.237499997
    822,  0.284999996,   0.42750001,  0.237499997
    823,  0.332500011,  0.474999994, 0.0474999994
    824,  0.332500011,  0.379999995, 0.0474999994
    825,  0.332500011,   0.42750001, 0.0949999988
    826,  0.332500011,   0.42750001,           0.
    827,  0.379999995,   0.42750001, 0.0474999994
    828,  0.284999996,   0.42750001, 0.0474999994
    829,  0.332500011,  0.332500011,           0.
    830,  0.332500011,  0.332500011, 0.0949999988
    831,  0.379999995,  0.332500011, 0.0474999994
    832,  0.284999996,  0.332500011, 0.0474999994
    833,  0.332500011,  0.332500011,  0.284999996
    834,  0.332500011,  0.332500011,  0.189999998
    835,  0.379999995,  0.332500011,  0.237499997
    836,  0.284999996,  0.332500011,  0.237499997
    837,  0.332500011,  0.332500011,  0.379999995
    838,  0.379999995,  0.332500011,  0.332500011
    839,  0.284999996,  0.332500011,  0.332500011
    840,  0.332500011,  0.332500011,  0.474999994
    841,  0.379999995,  0.332500011,   0.42750001
    842,  0.284999996,  0.332500011,   0.42750001
    843,  0.332500011,  0.142499998,           0.
    844,  0.379999995,  0.142499998, 0.0474999994
    845,  0.284999996,  0.142499998, 0.0474999994
    846,  0.332500011,           0.,  0.142499998
    847,  0.379999995, 0.0474999994,  0.142499998
    848,  0.284999996, 0.0474999994,  0.142499998
    849,   0.42750001,  0.332500011, 0.0949999988
    850,   0.42750001,  0.332500011,  0.189999998
    851,   0.42750001,  0.379999995,  0.142499998
    852,   0.42750001,  0.284999996,  0.142499998
    853,  0.379999995,  0.332500011,  0.142499998
    854,  0.474999994,  0.332500011,  0.142499998
    855,   0.42750001,  0.142499998,  0.379999995
    856,   0.42750001,  0.142499998,  0.474999994
    857,   0.42750001,  0.189999998,   0.42750001
    858,   0.42750001, 0.0949999988,   0.42750001
    859,  0.379999995,  0.142499998,   0.42750001
    860,  0.474999994,  0.142499998,   0.42750001
    861,   0.42750001,  0.142499998,  0.284999996
    862,   0.42750001,  0.189999998,  0.332500011
    863,   0.42750001, 0.0949999988,  0.332500011
    864,  0.379999995,  0.142499998,  0.332500011
    865,  0.474999994,  0.142499998,  0.332500011
    866,  0.332500011,  0.142499998,  0.284999996
    867,  0.379999995,  0.142499998,  0.237499997
    868,  0.284999996,  0.142499998,  0.237499997
    869,   0.42750001,  0.237499997, 0.0949999988
    870,   0.42750001,  0.237499997,  0.189999998
    871,   0.42750001,  0.189999998,  0.142499998
    872,  0.379999995,  0.237499997,  0.142499998
    873,  0.474999994,  0.237499997,  0.142499998
    874,   0.42750001,   0.42750001,  0.189999998
    875,   0.42750001,   0.42750001, 0.0949999988
    876,   0.42750001,  0.474999994,  0.142499998
    877,  0.379999995,   0.42750001,  0.142499998
    878,  0.474999994,   0.42750001,  0.142499998
    879,  0.237499997,  0.237499997,           0.
    880,  0.237499997,  0.237499997, 0.0949999988
    881,  0.237499997,  0.284999996, 0.0474999994
    882,  0.237499997,  0.189999998, 0.0474999994
    883,  0.189999998,  0.237499997, 0.0474999994
    884,  0.237499997,  0.284999996,  0.237499997
    885,  0.237499997,  0.189999998,  0.237499997
    886,  0.237499997,  0.237499997,  0.284999996
    887,  0.237499997,  0.237499997,  0.189999998
    888,  0.189999998,  0.237499997,  0.237499997
    889,  0.237499997,           0.,   0.42750001
    890,  0.237499997, 0.0949999988,   0.42750001
    891,  0.237499997, 0.0474999994,  0.379999995
    892,  0.237499997, 0.0474999994,  0.474999994
    893,  0.189999998, 0.0474999994,   0.42750001
    894,  0.237499997,  0.237499997,  0.379999995
    895,  0.237499997,  0.189999998,  0.332500011
    896,  0.237499997,  0.284999996,  0.332500011
    897,  0.189999998,  0.237499997,  0.332500011
    898,  0.237499997,           0.,  0.332500011
    899,  0.237499997, 0.0949999988,  0.332500011
    900,  0.237499997, 0.0474999994,  0.284999996
    901,  0.189999998, 0.0474999994,  0.332500011
    902,  0.237499997,  0.237499997,  0.474999994
    903,  0.237499997,  0.189999998,   0.42750001
    904,  0.237499997,  0.284999996,   0.42750001
    905,  0.189999998,  0.237499997,   0.42750001
    906,  0.237499997,  0.142499998, 0.0949999988
    907,  0.237499997,  0.142499998,  0.189999998
    908,  0.237499997, 0.0949999988,  0.142499998
    909,  0.237499997,  0.189999998,  0.142499998
    910,  0.189999998,  0.142499998,  0.142499998
    911,  0.237499997,           0.,  0.237499997
    912,  0.237499997, 0.0949999988,  0.237499997
    913,  0.237499997, 0.0474999994,  0.189999998
    914,  0.189999998, 0.0474999994,  0.237499997
    915,  0.237499997, 0.0474999994,           0.
    916,  0.237499997, 0.0474999994, 0.0949999988
    917,  0.237499997, 0.0949999988, 0.0474999994
    918,  0.237499997,           0., 0.0474999994
    919,  0.189999998, 0.0474999994, 0.0474999994
    920,  0.237499997,   0.42750001,  0.379999995
    921,  0.237499997,   0.42750001,  0.474999994
    922,  0.237499997,  0.379999995,   0.42750001
    923,  0.237499997,  0.474999994,   0.42750001
    924,  0.189999998,   0.42750001,   0.42750001
    925,  0.237499997,  0.474999994,  0.332500011
    926,  0.237499997,  0.379999995,  0.332500011
    927,  0.237499997,   0.42750001,  0.284999996
    928,  0.189999998,   0.42750001,  0.332500011
    929,  0.237499997,  0.474999994,  0.237499997
    930,  0.237499997,  0.379999995,  0.237499997
    931,  0.237499997,   0.42750001,  0.189999998
    932,  0.189999998,   0.42750001,  0.237499997
    933,  0.237499997,  0.474999994, 0.0474999994
    934,  0.237499997,  0.379999995, 0.0474999994
    935,  0.237499997,   0.42750001, 0.0949999988
    936,  0.237499997,   0.42750001,           0.
    937,  0.189999998,   0.42750001, 0.0474999994
    938,  0.237499997,  0.332500011,           0.
    939,  0.237499997,  0.332500011, 0.0949999988
    940,  0.189999998,  0.332500011, 0.0474999994
    941,  0.237499997,  0.332500011,  0.284999996
    942,  0.237499997,  0.332500011,  0.189999998
    943,  0.189999998,  0.332500011,  0.237499997
    944,  0.237499997,  0.332500011,  0.379999995
    945,  0.189999998,  0.332500011,  0.332500011
    946,  0.237499997,  0.332500011,  0.474999994
    947,  0.189999998,  0.332500011,   0.42750001
    948,  0.332500011,  0.379999995,  0.142499998
    949,  0.332500011,  0.474999994,  0.142499998
    950,  0.284999996,   0.42750001,  0.142499998
    951,  0.332500011,  0.284999996,  0.142499998
    952,  0.284999996,  0.237499997,  0.142499998
    953,   0.42750001,  0.142499998,  0.189999998
    954,   0.42750001,  0.189999998,  0.237499997
    955,   0.42750001, 0.0949999988,  0.237499997
    956,  0.474999994,  0.142499998,  0.237499997
    957,  0.332500011,  0.142499998,  0.379999995
    958,  0.284999996,  0.142499998,  0.332500011
    959,  0.332500011,  0.142499998,  0.474999994
    960,  0.284999996,  0.142499998,   0.42750001
    961,  0.284999996,  0.332500011,  0.142499998
    962,   0.42750001, 0.0474999994, 0.0949999988
    963,   0.42750001, 0.0474999994,  0.189999998
    964,   0.42750001, 0.0949999988,  0.142499998
    965,   0.42750001,           0.,  0.142499998
    966,  0.474999994, 0.0474999994,  0.142499998
    967,  0.237499997,  0.142499998,           0.
    968,  0.189999998,  0.142499998, 0.0474999994
    969,  0.142499998,  0.189999998, 0.0474999994
    970,  0.142499998,  0.284999996, 0.0474999994
    971,  0.142499998,  0.237499997, 0.0949999988
    972,  0.142499998,  0.237499997,           0.
    973, 0.0949999988,  0.237499997, 0.0474999994
    974,  0.142499998,  0.237499997,  0.284999996
    975,  0.142499998,  0.237499997,  0.189999998
    976,  0.142499998,  0.189999998,  0.237499997
    977,  0.142499998,  0.284999996,  0.237499997
    978, 0.0949999988,  0.237499997,  0.237499997
    979,  0.142499998, 0.0949999988,   0.42750001
    980,  0.142499998,           0.,   0.42750001
    981,  0.142499998, 0.0474999994,  0.474999994
    982,  0.142499998, 0.0474999994,  0.379999995
    983, 0.0949999988, 0.0474999994,   0.42750001
    984,  0.142499998,  0.237499997,  0.379999995
    985,  0.142499998,  0.189999998,  0.332500011
    986,  0.142499998,  0.284999996,  0.332500011
    987, 0.0949999988,  0.237499997,  0.332500011
    988,  0.142499998, 0.0949999988,  0.332500011
    989,  0.142499998,           0.,  0.332500011
    990,  0.142499998, 0.0474999994,  0.284999996
    991, 0.0949999988, 0.0474999994,  0.332500011
    992,  0.142499998,  0.237499997,  0.474999994
    993,  0.142499998,  0.189999998,   0.42750001
    994,  0.142499998,  0.284999996,   0.42750001
    995, 0.0949999988,  0.237499997,   0.42750001
    996,  0.142499998,  0.142499998,  0.189999998
    997,  0.142499998,  0.142499998, 0.0949999988
    998,  0.142499998, 0.0949999988,  0.142499998
    999,  0.142499998,  0.189999998,  0.142499998
   1000, 0.0949999988,  0.142499998,  0.142499998
   1001,  0.142499998, 0.0949999988,  0.237499997
   1002,  0.142499998,           0.,  0.237499997
   1003,  0.142499998, 0.0474999994,  0.189999998
   1004, 0.0949999988, 0.0474999994,  0.237499997
   1005,  0.142499998, 0.0474999994, 0.0949999988
   1006,  0.142499998, 0.0474999994,           0.
   1007,  0.142499998,           0., 0.0474999994
   1008,  0.142499998, 0.0949999988, 0.0474999994
   1009, 0.0949999988, 0.0474999994, 0.0474999994
   1010,  0.142499998,   0.42750001,  0.379999995
   1011,  0.142499998,   0.42750001,  0.474999994
   1012,  0.142499998,  0.379999995,   0.42750001
   1013,  0.142499998,  0.474999994,   0.42750001
   1014, 0.0949999988,   0.42750001,   0.42750001
   1015,  0.142499998,  0.379999995,  0.332500011
   1016,  0.142499998,  0.474999994,  0.332500011
   1017,  0.142499998,   0.42750001,  0.284999996
   1018, 0.0949999988,   0.42750001,  0.332500011
   1019,  0.142499998,  0.379999995,  0.237499997
   1020,  0.142499998,  0.474999994,  0.237499997
   1021,  0.142499998,   0.42750001,  0.189999998
   1022, 0.0949999988,   0.42750001,  0.237499997
   1023,  0.142499998,   0.42750001,           0.
   1024,  0.142499998,   0.42750001, 0.0949999988
   1025,  0.142499998,  0.474999994, 0.0474999994
   1026,  0.142499998,  0.379999995, 0.0474999994
   1027, 0.0949999988,   0.42750001, 0.0474999994
   1028,  0.142499998,  0.332500011, 0.0949999988
   1029,  0.142499998,  0.332500011,           0.
   1030, 0.0949999988,  0.332500011, 0.0474999994
   1031,  0.142499998,  0.332500011,  0.284999996
   1032,  0.142499998,  0.332500011,  0.189999998
   1033, 0.0949999988,  0.332500011,  0.237499997
   1034,  0.142499998,  0.332500011,  0.379999995
   1035, 0.0949999988,  0.332500011,  0.332500011
   1036,  0.142499998,  0.332500011,  0.474999994
   1037, 0.0949999988,  0.332500011,   0.42750001
   1038,  0.142499998,  0.379999995,  0.142499998
   1039,  0.142499998,  0.474999994,  0.142499998
   1040,  0.189999998,   0.42750001,  0.142499998
   1041, 0.0949999988,   0.42750001,  0.142499998
   1042,  0.142499998,  0.284999996,  0.142499998
   1043,  0.189999998,  0.237499997,  0.142499998
   1044, 0.0949999988,  0.237499997,  0.142499998
   1045,   0.42750001,  0.142499998,           0.
   1046,   0.42750001,  0.142499998, 0.0949999988
   1047,   0.42750001, 0.0949999988, 0.0474999994
   1048,   0.42750001,  0.189999998, 0.0474999994
   1049,  0.474999994,  0.142499998, 0.0474999994
   1050,  0.142499998,  0.142499998,  0.284999996
   1051,  0.189999998,  0.142499998,  0.237499997
   1052, 0.0949999988,  0.142499998,  0.237499997
   1053,  0.142499998,  0.142499998,  0.379999995
   1054,  0.189999998,  0.142499998,  0.332500011
   1055, 0.0949999988,  0.142499998,  0.332500011
   1056,  0.142499998,  0.142499998,  0.474999994
   1057,  0.189999998,  0.142499998,   0.42750001
   1058, 0.0949999988,  0.142499998,   0.42750001
   1059,  0.189999998,  0.332500011,  0.142499998
   1060, 0.0949999988,  0.332500011,  0.142499998
   1061,  0.142499998,           0.,  0.142499998
   1062,  0.189999998, 0.0474999994,  0.142499998
   1063, 0.0949999988, 0.0474999994,  0.142499998
   1064, 0.0474999994,  0.237499997, 0.0949999988
   1065, 0.0474999994,  0.237499997,           0.
   1066, 0.0474999994,  0.189999998, 0.0474999994
   1067, 0.0474999994,  0.284999996, 0.0474999994
   1068,           0.,  0.237499997, 0.0474999994
   1069, 0.0474999994,  0.237499997,  0.284999996
   1070, 0.0474999994,  0.237499997,  0.189999998
   1071, 0.0474999994,  0.189999998,  0.237499997
   1072, 0.0474999994,  0.284999996,  0.237499997
   1073,           0.,  0.237499997,  0.237499997
   1074,  0.237499997,           0.,  0.142499998
   1075, 0.0474999994, 0.0474999994,  0.474999994
   1076, 0.0474999994, 0.0474999994,  0.379999995
   1077, 0.0474999994,           0.,   0.42750001
   1078, 0.0474999994, 0.0949999988,   0.42750001
   1079,           0., 0.0474999994,   0.42750001
   1080, 0.0474999994,  0.237499997,  0.379999995
   1081, 0.0474999994,  0.189999998,  0.332500011
   1082, 0.0474999994,  0.284999996,  0.332500011
   1083,           0.,  0.237499997,  0.332500011
   1084, 0.0474999994, 0.0474999994,  0.284999996
   1085, 0.0474999994,           0.,  0.332500011
   1086, 0.0474999994, 0.0949999988,  0.332500011
   1087,           0., 0.0474999994,  0.332500011
   1088, 0.0474999994,  0.237499997,  0.474999994
   1089, 0.0474999994,  0.189999998,   0.42750001
   1090, 0.0474999994,  0.284999996,   0.42750001
   1091,           0.,  0.237499997,   0.42750001
   1092, 0.0474999994,  0.142499998,  0.189999998
   1093, 0.0474999994,  0.142499998, 0.0949999988
   1094, 0.0474999994, 0.0949999988,  0.142499998
   1095, 0.0474999994,  0.189999998,  0.142499998
   1096,           0.,  0.142499998,  0.142499998
   1097, 0.0474999994, 0.0474999994,  0.189999998
   1098, 0.0474999994,           0.,  0.237499997
   1099, 0.0474999994, 0.0949999988,  0.237499997
   1100,           0., 0.0474999994,  0.237499997
   1101, 0.0474999994, 0.0474999994, 0.0949999988
   1102, 0.0474999994, 0.0474999994,           0.
   1103, 0.0474999994,           0., 0.0474999994
   1104, 0.0474999994, 0.0949999988, 0.0474999994
   1105,           0., 0.0474999994, 0.0474999994
   1106,  0.237499997,  0.284999996,  0.142499998
   1107,  0.237499997,  0.379999995,  0.142499998
   1108,  0.237499997,  0.142499998,  0.379999995
   1109,  0.237499997,  0.142499998,  0.474999994
   1110,  0.237499997,  0.142499998,  0.284999996
   1111,  0.142499998,  0.142499998,           0.
   1112, 0.0949999988,  0.142499998, 0.0474999994
   1113, 0.0474999994,   0.42750001,  0.379999995
   1114, 0.0474999994,   0.42750001,  0.474999994
   1115, 0.0474999994,  0.379999995,   0.42750001
   1116, 0.0474999994,  0.474999994,   0.42750001
   1117,           0.,   0.42750001,   0.42750001
   1118, 0.0474999994,   0.42750001,  0.284999996
   1119, 0.0474999994,  0.379999995,  0.332500011
   1120, 0.0474999994,  0.474999994,  0.332500011
   1121,           0.,   0.42750001,  0.332500011
   1122, 0.0474999994,   0.42750001,  0.189999998
   1123, 0.0474999994,  0.379999995,  0.237499997
   1124, 0.0474999994,  0.474999994,  0.237499997
   1125,           0.,   0.42750001,  0.237499997
   1126, 0.0474999994,   0.42750001,           0.
   1127, 0.0474999994,   0.42750001, 0.0949999988
   1128, 0.0474999994,  0.474999994, 0.0474999994
   1129, 0.0474999994,  0.379999995, 0.0474999994
   1130,           0.,   0.42750001, 0.0474999994
   1131, 0.0474999994,  0.332500011, 0.0949999988
   1132, 0.0474999994,  0.332500011,           0.
   1133,           0.,  0.332500011, 0.0474999994
   1134, 0.0474999994,  0.332500011,  0.284999996
   1135, 0.0474999994,  0.332500011,  0.189999998
   1136,           0.,  0.332500011,  0.237499997
   1137, 0.0474999994,  0.332500011,  0.379999995
   1138,           0.,  0.332500011,  0.332500011
   1139, 0.0474999994,  0.332500011,  0.474999994
   1140,           0.,  0.332500011,   0.42750001
   1141,  0.237499997,  0.474999994,  0.142499998
   1142,           0.,   0.42750001,  0.142499998
   1143, 0.0474999994,  0.379999995,  0.142499998
   1144, 0.0474999994,  0.474999994,  0.142499998
   1145,  0.474999994,  0.332500011,   0.42750001
   1146,   0.42750001,  0.332500011,  0.379999995
   1147,   0.42750001,  0.332500011,  0.474999994
   1148,   0.42750001,  0.379999995,   0.42750001
   1149,   0.42750001,  0.284999996,   0.42750001
   1150,  0.474999994,  0.332500011,  0.332500011
   1151,   0.42750001,  0.332500011,  0.284999996
   1152,   0.42750001,  0.379999995,  0.332500011
   1153,   0.42750001,  0.284999996,  0.332500011
   1154,  0.474999994,  0.332500011,  0.237499997
   1155,   0.42750001,  0.379999995,  0.237499997
   1156,   0.42750001,  0.284999996,  0.237499997
   1157,  0.474999994,  0.332500011, 0.0474999994
   1158,   0.42750001,  0.332500011,           0.
   1159,   0.42750001,  0.379999995, 0.0474999994
   1160,   0.42750001,  0.284999996, 0.0474999994
   1161,  0.474999994,   0.42750001, 0.0474999994
   1162,   0.42750001,   0.42750001,           0.
   1163,   0.42750001,  0.474999994, 0.0474999994
   1164,  0.474999994,   0.42750001,  0.237499997
   1165,   0.42750001,   0.42750001,  0.284999996
   1166,   0.42750001,  0.474999994,  0.237499997
   1167,  0.474999994,   0.42750001,  0.332500011
   1168,   0.42750001,   0.42750001,  0.379999995
   1169,   0.42750001,  0.474999994,  0.332500011
   1170,  0.474999994,   0.42750001,   0.42750001
   1171,   0.42750001,   0.42750001,  0.474999994
   1172,   0.42750001,  0.474999994,   0.42750001
   1173,           0.,  0.237499997,  0.142499998
   1174, 0.0474999994,  0.284999996,  0.142499998
   1175,           0.,  0.142499998, 0.0474999994
   1176, 0.0474999994,  0.142499998,           0.
   1177,           0.,  0.142499998,  0.237499997
   1178, 0.0474999994,  0.142499998,  0.284999996
   1179,           0.,  0.142499998,  0.332500011
   1180, 0.0474999994,  0.142499998,  0.379999995
   1181,           0.,  0.142499998,   0.42750001
   1182, 0.0474999994,  0.142499998,  0.474999994
   1183,           0.,  0.332500011,  0.142499998
   1184,  0.474999994, 0.0474999994, 0.0474999994
   1185,   0.42750001, 0.0474999994,           0.
   1186,   0.42750001,           0., 0.0474999994
   1187,  0.474999994, 0.0474999994,  0.237499997
   1188,   0.42750001, 0.0474999994,  0.284999996
   1189,   0.42750001,           0.,  0.237499997
   1190,  0.474999994,  0.142499998,  0.142499998
   1191,  0.474999994,  0.237499997,   0.42750001
   1192,   0.42750001,  0.237499997,  0.379999995
   1193,   0.42750001,  0.237499997,  0.474999994
   1194,  0.474999994, 0.0474999994,  0.332500011
   1195,   0.42750001, 0.0474999994,  0.379999995
   1196,   0.42750001,           0.,  0.332500011
   1197,  0.474999994,  0.237499997,  0.332500011
   1198,   0.42750001,  0.237499997,  0.284999996
   1199,  0.474999994, 0.0474999994,   0.42750001
   1200,   0.42750001, 0.0474999994,  0.474999994
   1201,   0.42750001,           0.,   0.42750001
   1202,           0., 0.0474999994,  0.142499998
   1203, 0.0474999994,           0.,  0.142499998
   1204,  0.474999994,  0.237499997,  0.237499997
   1205,  0.474999994,  0.237499997, 0.0474999994
   1206,   0.42750001,  0.237499997,           0.
   1207,  0.332500011,  0.237499997, 0.0474999994
   1208,  0.332500011,  0.237499997,  0.237499997
   1209,  0.332500011, 0.0474999994,   0.42750001
   1210,  0.332500011,  0.237499997,  0.332500011
   1211,  0.332500011, 0.0474999994,  0.332500011
   1212,  0.332500011,  0.237499997,   0.42750001
   1213,  0.332500011,  0.142499998,  0.142499998
   1214,  0.332500011, 0.0474999994,  0.237499997
   1215,  0.332500011, 0.0474999994, 0.0474999994
   1216,  0.332500011,   0.42750001,   0.42750001
   1217,  0.332500011,   0.42750001,  0.332500011
   1218,  0.332500011,   0.42750001,  0.237499997
   1219,  0.332500011,   0.42750001, 0.0474999994
   1220,  0.332500011,  0.332500011, 0.0474999994
   1221,  0.332500011,  0.332500011,  0.237499997
   1222,  0.332500011,  0.332500011,  0.332500011
   1223,  0.332500011,  0.332500011,   0.42750001
   1224,  0.332500011,  0.142499998, 0.0474999994
   1225,  0.332500011, 0.0474999994,  0.142499998
   1226,   0.42750001,  0.332500011,  0.142499998
   1227,   0.42750001,  0.142499998,   0.42750001
   1228,   0.42750001,  0.142499998,  0.332500011
   1229,  0.332500011,  0.142499998,  0.237499997
   1230,   0.42750001,  0.237499997,  0.142499998
   1231,   0.42750001,   0.42750001,  0.142499998
   1232,  0.237499997,  0.237499997, 0.0474999994
   1233,  0.237499997,  0.237499997,  0.237499997
   1234,  0.237499997, 0.0474999994,   0.42750001
   1235,  0.237499997,  0.237499997,  0.332500011
   1236,  0.237499997, 0.0474999994,  0.332500011
   1237,  0.237499997,  0.237499997,   0.42750001
   1238,  0.237499997,  0.142499998,  0.142499998
   1239,  0.237499997, 0.0474999994,  0.237499997
   1240,  0.237499997, 0.0474999994, 0.0474999994
   1241,  0.237499997,   0.42750001,   0.42750001
   1242,  0.237499997,   0.42750001,  0.332500011
   1243,  0.237499997,   0.42750001,  0.237499997
   1244,  0.237499997,   0.42750001, 0.0474999994
   1245,  0.237499997,  0.332500011, 0.0474999994
   1246,  0.237499997,  0.332500011,  0.237499997
   1247,  0.237499997,  0.332500011,  0.332500011
   1248,  0.237499997,  0.332500011,   0.42750001
   1249,  0.332500011,   0.42750001,  0.142499998
   1250,  0.332500011,  0.237499997,  0.142499998
   1251,   0.42750001,  0.142499998,  0.237499997
   1252,  0.332500011,  0.142499998,  0.332500011
   1253,  0.332500011,  0.142499998,   0.42750001
   1254,  0.332500011,  0.332500011,  0.142499998
   1255,   0.42750001, 0.0474999994,  0.142499998
   1256,  0.237499997,  0.142499998, 0.0474999994
   1257,  0.142499998,  0.237499997, 0.0474999994
   1258,  0.142499998,  0.237499997,  0.237499997
   1259,  0.142499998, 0.0474999994,   0.42750001
   1260,  0.142499998,  0.237499997,  0.332500011
   1261,  0.142499998, 0.0474999994,  0.332500011
   1262,  0.142499998,  0.237499997,   0.42750001
   1263,  0.142499998,  0.142499998,  0.142499998
   1264,  0.142499998, 0.0474999994,  0.237499997
   1265,  0.142499998, 0.0474999994, 0.0474999994
   1266,  0.142499998,   0.42750001,   0.42750001
   1267,  0.142499998,   0.42750001,  0.332500011
   1268,  0.142499998,   0.42750001,  0.237499997
   1269,  0.142499998,   0.42750001, 0.0474999994
   1270,  0.142499998,  0.332500011, 0.0474999994
   1271,  0.142499998,  0.332500011,  0.237499997
   1272,  0.142499998,  0.332500011,  0.332500011
   1273,  0.142499998,  0.332500011,   0.42750001
   1274,  0.142499998,   0.42750001,  0.142499998
   1275,  0.142499998,  0.237499997,  0.142499998
   1276,   0.42750001,  0.142499998, 0.0474999994
   1277,  0.142499998,  0.142499998,  0.237499997
   1278,  0.142499998,  0.142499998,  0.332500011
   1279,  0.142499998,  0.142499998,   0.42750001
   1280,  0.142499998,  0.332500011,  0.142499998
   1281,  0.142499998, 0.0474999994,  0.142499998
   1282, 0.0474999994,  0.237499997, 0.0474999994
   1283, 0.0474999994,  0.237499997,  0.237499997
   1284,  0.237499997, 0.0474999994,  0.142499998
   1285, 0.0474999994, 0.0474999994,   0.42750001
   1286, 0.0474999994,  0.237499997,  0.332500011
   1287, 0.0474999994, 0.0474999994,  0.332500011
   1288, 0.0474999994,  0.237499997,   0.42750001
   1289, 0.0474999994,  0.142499998,  0.142499998
   1290, 0.0474999994, 0.0474999994,  0.237499997
   1291, 0.0474999994, 0.0474999994, 0.0474999994
   1292,  0.237499997,  0.332500011,  0.142499998
   1293,  0.237499997,  0.142499998,   0.42750001
   1294,  0.237499997,  0.142499998,  0.332500011
   1295,  0.237499997,  0.142499998,  0.237499997
   1296,  0.142499998,  0.142499998, 0.0474999994
   1297,  0.237499997,  0.237499997,  0.142499998
   1298, 0.0474999994,   0.42750001,   0.42750001
   1299, 0.0474999994,   0.42750001,  0.332500011
   1300, 0.0474999994,   0.42750001,  0.237499997
   1301, 0.0474999994,   0.42750001, 0.0474999994
   1302, 0.0474999994,  0.332500011, 0.0474999994
   1303, 0.0474999994,  0.332500011,  0.237499997
   1304, 0.0474999994,  0.332500011,  0.332500011
   1305, 0.0474999994,  0.332500011,   0.42750001
   1306,  0.237499997,   0.42750001,  0.142499998
   1307, 0.0474999994,   0.42750001,  0.142499998
   1308,   0.42750001,  0.332500011,   0.42750001
   1309,   0.42750001,  0.332500011,  0.332500011
   1310,   0.42750001,  0.332500011,  0.237499997
   1311,   0.42750001,  0.332500011, 0.0474999994
   1312,   0.42750001,   0.42750001, 0.0474999994
   1313,   0.42750001,   0.42750001,  0.237499997
   1314,   0.42750001,   0.42750001,  0.332500011
   1315,   0.42750001,   0.42750001,   0.42750001
   1316, 0.0474999994,  0.237499997,  0.142499998
   1317, 0.0474999994,  0.142499998, 0.0474999994
   1318, 0.0474999994,  0.142499998,  0.237499997
   1319, 0.0474999994,  0.142499998,  0.332500011
   1320, 0.0474999994,  0.142499998,   0.42750001
   1321, 0.0474999994,  0.332500011,  0.142499998
   1322,   0.42750001, 0.0474999994, 0.0474999994
   1323,   0.42750001, 0.0474999994,  0.237499997
   1324,   0.42750001,  0.142499998,  0.142499998
   1325,   0.42750001,  0.237499997,   0.42750001
   1326,   0.42750001, 0.0474999994,  0.332500011
   1327,   0.42750001,  0.237499997,  0.332500011
   1328,   0.42750001, 0.0474999994,   0.42750001
   1329, 0.0474999994, 0.0474999994,  0.142499998
   1330,   0.42750001,  0.237499997,  0.237499997
   1331,   0.42750001,  0.237499997, 0.0474999994
*Element, type=C3D8
1,  226,  761, 1207,  759,    1,  217,  757,  220
2,  761,  228,  760, 1207,  217,    2,  218,  757
3,  759, 1207,  762,  225,  220,  757,  219,    4
4, 1207,  760,  227,  762,  757,  218,    3,  219
5,    8,  221,  758,  224,  226,  761, 1207,  759
6,  221,    5,  222,  758,  761,  228,  760, 1207
7,  224,  758,  223,    7,  759, 1207,  762,  225
8,  758,  222,    6,  223, 1207,  760,  227,  762
 9,  238,  767, 1208,  765,    9,  229,  763,  232
10,  767,  240,  766, 1208,  229,   10,  230,  763
11,  765, 1208,  768,  237,  232,  763,  231,   12
12, 1208,  766,  239,  768,  763,  230,   11,  231
13,   13,  233,  764,  236,  238,  767, 1208,  765
14,  233,   14,  234,  764,  767,  240,  766, 1208
15,  236,  764,  235,   16,  765, 1208,  768,  237
16,  764,  234,   15,  235, 1208,  766,  239,  768
17,  250,  773, 1209,  771,   17,  241,  769,  244
18,  773,  252,  772, 1209,  241,   18,  242,  769
19,  771, 1209,  774,  249,  244,  769,  243,   20
20, 1209,  772,  251,  774,  769,  242,   19,  243
21,   24,  245,  770,  248,  250,  773, 1209,  771
22,  245,   21,  246,  770,  773,  252,  772, 1209
23,  248,  770,  247,   23,  771, 1209,  774,  249
24,  770,  246,   22,  247, 1209,  772,  251,  774
25,  258,  778, 1210,  776,   25,  253,  775,  256
26,  778,  260,  777, 1210,  253,   26,  254,  775
27,  776, 1210,  779,  257,  256,  775,  255,   28
28, 1210,  777,  259,  779,  775,  254,   27,  255
29,   13,  238,  765,  236,  258,  778, 1210,  776
30,  238,    9,  232,  765,  778,  260,  777, 1210
31,  236,  765,  237,   16,  776, 1210,  779,  257
32,  765,  232,   12,  237, 1210,  777,  259,  779
33,  268,  783, 1211,  782,   29,  261,  780,  263
34,  783,  250,  771, 1211,  261,   17,  244,  780
35,  782, 1211,  784,  267,  263,  780,  262,   30
36, 1211,  771,  249,  784,  780,  244,   20,  262
37,   32,  264,  781,  266,  268,  783, 1211,  782
38,  264,   24,  248,  781,  783,  250,  771, 1211
39,  266,  781,  265,   31,  782, 1211,  784,  267
40,  781,  248,   23,  265, 1211,  771,  249,  784
41,  274,  788, 1212,  786,   33,  269,  785,  272
42,  788,  276,  787, 1212,  269,   34,  270,  785
43,  786, 1212,  789,  273,  272,  785,  271,   36
44, 1212,  787,  275,  789,  785,  270,   35,  271
45,   25,  253,  775,  256,  274,  788, 1212,  786
46,  253,   26,  254,  775,  788,  276,  787, 1212
47,  256,  775,  255,   28,  786, 1212,  789,  273
48,  775,  254,   27,  255, 1212,  787,  275,  789
49,   37,  277,  790,  279,  284,  794, 1213,  792
50,  277,    5,  222,  790,  794,  286,  793, 1213
51,  279,  790,  278,   38,  792, 1213,  795,  283
52,  790,  222,    6,  278, 1213,  793,  285,  795
53,  284,  794, 1213,  792,   39,  280,  791,  282
54,  794,  286,  793, 1213,  280,   14,  234,  791
55,  792, 1213,  795,  283,  282,  791,  281,   40
56, 1213,  793,  285,  795,  791,  234,   15,  281
57,  293,  799, 1214,  798,   41,  287,  796,  289
58,  799,  268,  782, 1214,  287,   29,  263,  796
59,  798, 1214,  800,  292,  289,  796,  288,   42
60, 1214,  782,  267,  800,  796,  263,   30,  288
61,   39,  290,  797,  282,  293,  799, 1214,  798
62,  290,   32,  266,  797,  799,  268,  782, 1214
63,  282,  797,  291,   40,  798, 1214,  800,  292
64,  797,  266,   31,  291, 1214,  782,  267,  800
65,  302,  805, 1215,  803,   43,  294,  801,  297
66,  805,  304,  804, 1215,  294,   44,  295,  801
67,  803, 1215,  806,  301,  297,  801,  296,   46
68, 1215,  804,  303,  806,  801,  295,   45,  296
69,   37,  298,  802,  279,  302,  805, 1215,  803
70,  298,   47,  299,  802,  805,  304,  804, 1215
71,  279,  802,  300,   38,  803, 1215,  806,  301
72,  802,  299,   48,  300, 1215,  804,  303,  806
73,   49,  305,  807,  308,  314,  811, 1216,  809
74,  305,   50,  306,  807,  811,  316,  810, 1216
75,  308,  807,  307,   52,  809, 1216,  812,  313
76,  807,  306,   51,  307, 1216,  810,  315,  812
77,  314,  811, 1216,  809,   53,  309,  808,  312
78,  811,  316,  810, 1216,  309,   54,  310,  808
79,  809, 1216,  812,  313,  312,  808,  311,   56
80, 1216,  810,  315,  812,  808,  310,   55,  311
81,  305,  816, 1217,  807,   50,  317,  813,  306
82,  816,  324,  815, 1217,  317,   57,  318,  813
83,  807, 1217,  817,  307,  306,  813,  319,   51
84, 1217,  815,  323,  817,  813,  318,   58,  319
85,   49,  320,  814,  308,  305,  816, 1217,  807
86,  320,   59,  321,  814,  816,  324,  815, 1217
87,  308,  814,  322,   52,  807, 1217,  817,  307
88,  814,  321,   60,  322, 1217,  815,  323,  817
89,  324,  821, 1218,  815,   57,  325,  818,  318
90,  821,  332,  820, 1218,  325,   61,  326,  818
91,  815, 1218,  822,  323,  318,  818,  327,   58
92, 1218,  820,  331,  822,  818,  326,   62,  327
93,   59,  328,  819,  321,  324,  821, 1218,  815
94,  328,   63,  329,  819,  821,  332,  820, 1218
95,  321,  819,  330,   60,  815, 1218,  822,  323
96,  819,  329,   64,  330, 1218,  820,  331,  822
 97,  342,  827, 1219,  825,   65,  333,  823,  336
 98,  827,  344,  826, 1219,  333,   66,  334,  823
 99,  825, 1219,  828,  341,  336,  823,  335,   68
100, 1219,  826,  343,  828,  823,  334,   67,  335
101,   69,  337,  824,  340,  342,  827, 1219,  825
102,  337,   70,  338,  824,  827,  344,  826, 1219
103,  340,  824,  339,   72,  825, 1219,  828,  341
104,  824,  338,   71,  339, 1219,  826,  343,  828
105,  337,  831, 1220,  824,   70,  345,  829,  338
106,  831,  226,  759, 1220,  345,    1,  220,  829
107,  824, 1220,  832,  339,  338,  829,  346,   71
108, 1220,  759,  225,  832,  829,  220,    4,  346
109,   69,  347,  830,  340,  337,  831, 1220,  824
110,  347,    8,  224,  830,  831,  226,  759, 1220
111,  340,  830,  348,   72,  824, 1220,  832,  339
112,  830,  224,    7,  348, 1220,  759,  225,  832
113,  350,  835, 1221,  833,   59,  328,  819,  321
114,  835,  352,  834, 1221,  328,   63,  329,  819
115,  833, 1221,  836,  349,  321,  819,  330,   60
116, 1221,  834,  351,  836,  819,  329,   64,  330
117,    9,  229,  763,  232,  350,  835, 1221,  833
118,  229,   10,  230,  763,  835,  352,  834, 1221
119,  232,  763,  231,   12,  833, 1221,  836,  349
120,  763,  230,   11,  231, 1221,  834,  351,  836
121,  354,  838, 1222,  837,   49,  320,  814,  308
122,  838,  350,  833, 1222,  320,   59,  321,  814
123,  837, 1222,  839,  353,  308,  814,  322,   52
124, 1222,  833,  349,  839,  814,  321,   60,  322
125,   26,  260,  777,  254,  354,  838, 1222,  837
126,  260,    9,  232,  777,  838,  350,  833, 1222
127,  254,  777,  259,   27,  837, 1222,  839,  353
128,  777,  232,   12,  259, 1222,  833,  349,  839
129,  276,  841, 1223,  787,   34,  355,  840,  270
130,  841,  314,  809, 1223,  355,   53,  312,  840
131,  787, 1223,  842,  275,  270,  840,  356,   35
132, 1223,  809,  313,  842,  840,  312,   56,  356
133,   26,  354,  837,  254,  276,  841, 1223,  787
134,  354,   49,  308,  837,  841,  314,  809, 1223
135,  254,  837,  353,   27,  787, 1223,  842,  275
136,  837,  308,   52,  353, 1223,  809,  313,  842
137,  228,  844, 1224,  760,    2,  357,  843,  218
138,  844,  302,  803, 1224,  357,   43,  297,  843
139,  760, 1224,  845,  227,  218,  843,  358,    3
140, 1224,  803,  301,  845,  843,  297,   46,  358
141,    5,  277,  790,  222,  228,  844, 1224,  760
142,  277,   37,  279,  790,  844,  302,  803, 1224
143,  222,  790,  278,    6,  760, 1224,  845,  227
144,  790,  279,   38,  278, 1224,  803,  301,  845
145,   47,  298,  802,  299,  360,  847, 1225,  846
146,  298,   37,  279,  802,  847,  284,  792, 1225
147,  299,  802,  300,   48,  846, 1225,  848,  359
148,  802,  279,   38,  300, 1225,  792,  283,  848
149,  360,  847, 1225,  846,   41,  293,  798,  289
150,  847,  284,  792, 1225,  293,   39,  282,  798
151,  846, 1225,  848,  359,  289,  798,  292,   42
152, 1225,  792,  283,  848,  798,  282,   40,  292
153,   69,  347,  849,  363,  368,  853, 1226,  851
154,  347,    8,  361,  849,  853,  370,  852, 1226
155,  363,  849,  362,   74,  851, 1226,  854,  367
156,  849,  361,   73,  362, 1226,  852,  369,  854
157,  368,  853, 1226,  851,   63,  352,  850,  366
158,  853,  370,  852, 1226,  352,   10,  364,  850
159,  851, 1226,  854,  367,  366,  850,  365,   76
160, 1226,  852,  369,  854,  850,  364,   75,  365
161,   25,  371,  855,  374,  274,  859, 1227,  857
162,  371,   24,  372,  855,  859,  245,  858, 1227
163,  374,  855,  373,   78,  857, 1227,  860,  379
164,  855,  372,   77,  373, 1227,  858,  380,  860
165,  274,  859, 1227,  857,   33,  375,  856,  378
166,  859,  245,  858, 1227,  375,   21,  376,  856
167,  857, 1227,  860,  379,  378,  856,  377,   80
168, 1227,  858,  380,  860,  856,  376,   79,  377
169,   13,  381,  861,  384,  258,  864, 1228,  862
170,  381,   32,  382,  861,  864,  264,  863, 1228
171,  384,  861,  383,   82,  862, 1228,  865,  385
172,  861,  382,   81,  383, 1228,  863,  386,  865
173,  258,  864, 1228,  862,   25,  371,  855,  374
174,  864,  264,  863, 1228,  371,   24,  372,  855
175,  862, 1228,  865,  385,  374,  855,  373,   78
176, 1228,  863,  386,  865,  855,  372,   77,  373
177,   39,  280,  791,  282,  290,  867, 1229,  797
178,  280,   14,  234,  791,  867,  233,  764, 1229
179,  282,  791,  281,   40,  797, 1229,  868,  291
180,  791,  234,   15,  281, 1229,  764,  235,  868
181,  290,  867, 1229,  797,   32,  381,  866,  266
182,  867,  233,  764, 1229,  381,   13,  236,  866
183,  797, 1229,  868,  291,  266,  866,  387,   31
184, 1229,  764,  235,  868,  866,  236,   16,  387
185,    8,  221,  869,  361,  370,  872, 1230,  852
186,  221,    5,  388,  869,  872,  286,  871, 1230
187,  361,  869,  389,   73,  852, 1230,  873,  369
188,  869,  388,   83,  389, 1230,  871,  392,  873
189,  370,  872, 1230,  852,   10,  240,  870,  364
190,  872,  286,  871, 1230,  240,   14,  390,  870
191,  852, 1230,  873,  369,  364,  870,  391,   75
192, 1230,  871,  392,  873,  870,  390,   84,  391
193,  398,  877, 1231,  876,   61,  332,  874,  394
194,  877,  368,  851, 1231,  332,   63,  366,  874
195,  876, 1231,  878,  397,  394,  874,  393,   85
196, 1231,  851,  367,  878,  874,  366,   76,  393
197,   65,  342,  875,  396,  398,  877, 1231,  876
198,  342,   69,  363,  875,  877,  368,  851, 1231
199,  396,  875,  395,   86,  876, 1231,  878,  397
200,  875,  363,   74,  395, 1231,  851,  367,  878
201,  225,  762, 1232,  881,    4,  219,  879,  401
202,  762,  227,  882, 1232,  219,    3,  399,  879
203,  881, 1232,  883,  405,  401,  879,  400,   88
204, 1232,  882,  406,  883,  879,  399,   87,  400
205,    7,  223,  880,  404,  225,  762, 1232,  881
206,  223,    6,  402,  880,  762,  227,  882, 1232
207,  404,  880,  403,   90,  881, 1232,  883,  405
208,  880,  402,   89,  403, 1232,  882,  406,  883
209,  237,  768, 1233,  886,   12,  231,  884,  409
210,  768,  239,  887, 1233,  231,   11,  407,  884
211,  886, 1233,  888,  413,  409,  884,  408,   92
212, 1233,  887,  414,  888,  884,  407,   91,  408
213,   16,  235,  885,  412,  237,  768, 1233,  886
214,  235,   15,  410,  885,  768,  239,  887, 1233
215,  412,  885,  411,   94,  886, 1233,  888,  413
216,  885,  410,   93,  411, 1233,  887,  414,  888
217,  249,  774, 1234,  891,   20,  243,  889,  417
218,  774,  251,  892, 1234,  243,   19,  415,  889
219,  891, 1234,  893,  421,  417,  889,  416,   96
220, 1234,  892,  422,  893,  889,  415,   95,  416
221,   23,  247,  890,  420,  249,  774, 1234,  891
222,  247,   22,  418,  890,  774,  251,  892, 1234
223,  420,  890,  419,   98,  891, 1234,  893,  421
224,  890,  418,   97,  419, 1234,  892,  422,  893
225,  257,  779, 1235,  895,   28,  255,  894,  425
226,  779,  259,  896, 1235,  255,   27,  423,  894
227,  895, 1235,  897,  426,  425,  894,  424,  100
228, 1235,  896,  427,  897,  894,  423,   99,  424
229,   16,  237,  886,  412,  257,  779, 1235,  895
230,  237,   12,  409,  886,  779,  259,  896, 1235
231,  412,  886,  413,   94,  895, 1235,  897,  426
232,  886,  409,   92,  413, 1235,  896,  427,  897
233,  267,  784, 1236,  900,   30,  262,  898,  429
234,  784,  249,  891, 1236,  262,   20,  417,  898
235,  900, 1236,  901,  432,  429,  898,  428,  101
236, 1236,  891,  421,  901,  898,  417,   96,  428
237,   31,  265,  899,  431,  267,  784, 1236,  900
238,  265,   23,  420,  899,  784,  249,  891, 1236
239,  431,  899,  430,  102,  900, 1236,  901,  432
240,  899,  420,   98,  430, 1236,  891,  421,  901
241,  273,  789, 1237,  903,   36,  271,  902,  435
242,  789,  275,  904, 1237,  271,   35,  433,  902
243,  903, 1237,  905,  436,  435,  902,  434,  104
244, 1237,  904,  437,  905,  902,  433,  103,  434
245,   28,  255,  894,  425,  273,  789, 1237,  903
246,  255,   27,  423,  894,  789,  275,  904, 1237
247,  425,  894,  424,  100,  903, 1237,  905,  436
248,  894,  423,   99,  424, 1237,  904,  437,  905
249,   38,  278,  906,  439,  283,  795, 1238,  908
250,  278,    6,  402,  906,  795,  285,  909, 1238
251,  439,  906,  438,  105,  908, 1238,  910,  442
252,  906,  402,   89,  438, 1238,  909,  443,  910
253,  283,  795, 1238,  908,   40,  281,  907,  441
254,  795,  285,  909, 1238,  281,   15,  410,  907
255,  908, 1238,  910,  442,  441,  907,  440,  106
256, 1238,  909,  443,  910,  907,  410,   93,  440
257,  292,  800, 1239,  913,   42,  288,  911,  445
258,  800,  267,  900, 1239,  288,   30,  429,  911
259,  913, 1239,  914,  447,  445,  911,  444,  107
260, 1239,  900,  432,  914,  911,  429,  101,  444
261,   40,  291,  912,  441,  292,  800, 1239,  913
262,  291,   31,  431,  912,  800,  267,  900, 1239
263,  441,  912,  446,  106,  913, 1239,  914,  447
264,  912,  431,  102,  446, 1239,  900,  432,  914
265,  301,  806, 1240,  917,   46,  296,  915,  450
266,  806,  303,  918, 1240,  296,   45,  448,  915
267,  917, 1240,  919,  453,  450,  915,  449,  109
268, 1240,  918,  454,  919,  915,  448,  108,  449
269,   38,  300,  916,  439,  301,  806, 1240,  917
270,  300,   48,  451,  916,  806,  303,  918, 1240
271,  439,  916,  452,  105,  917, 1240,  919,  453
272,  916,  451,  110,  452, 1240,  918,  454,  919
273,   52,  307,  920,  457,  313,  812, 1241,  922
274,  307,   51,  455,  920,  812,  315,  923, 1241
275,  457,  920,  456,  112,  922, 1241,  924,  461
276,  920,  455,  111,  456, 1241,  923,  462,  924
277,  313,  812, 1241,  922,   56,  311,  921,  460
278,  812,  315,  923, 1241,  311,   55,  458,  921
279,  922, 1241,  924,  461,  460,  921,  459,  114
280, 1241,  923,  462,  924,  921,  458,  113,  459
281,  307,  817, 1242,  920,   51,  319,  925,  455
282,  817,  323,  927, 1242,  319,   58,  463,  925
283,  920, 1242,  928,  456,  455,  925,  464,  111
284, 1242,  927,  467,  928,  925,  463,  115,  464
285,   52,  322,  926,  457,  307,  817, 1242,  920
286,  322,   60,  465,  926,  817,  323,  927, 1242
287,  457,  926,  466,  112,  920, 1242,  928,  456
288,  926,  465,  116,  466, 1242,  927,  467,  928
289,  323,  822, 1243,  927,   58,  327,  929,  463
290,  822,  331,  931, 1243,  327,   62,  468,  929
291,  927, 1243,  932,  467,  463,  929,  469,  115
292, 1243,  931,  472,  932,  929,  468,  117,  469
293,   60,  330,  930,  465,  323,  822, 1243,  927
294,  330,   64,  470,  930,  822,  331,  931, 1243
295,  465,  930,  471,  116,  927, 1243,  932,  467
296,  930,  470,  118,  471, 1243,  931,  472,  932
297,  341,  828, 1244,  935,   68,  335,  933,  475
298,  828,  343,  936, 1244,  335,   67,  473,  933
299,  935, 1244,  937,  479,  475,  933,  474,  120
300, 1244,  936,  480,  937,  933,  473,  119,  474
301,   72,  339,  934,  478,  341,  828, 1244,  935
302,  339,   71,  476,  934,  828,  343,  936, 1244
303,  478,  934,  477,  122,  935, 1244,  937,  479
304,  934,  476,  121,  477, 1244,  936,  480,  937
305,  339,  832, 1245,  934,   71,  346,  938,  476
306,  832,  225,  881, 1245,  346,    4,  401,  938
307,  934, 1245,  940,  477,  476,  938,  481,  121
308, 1245,  881,  405,  940,  938,  401,   88,  481
309,   72,  348,  939,  478,  339,  832, 1245,  934
310,  348,    7,  404,  939,  832,  225,  881, 1245
311,  478,  939,  482,  122,  934, 1245,  940,  477
312,  939,  404,   90,  482, 1245,  881,  405,  940
313,  349,  836, 1246,  941,   60,  330,  930,  465
314,  836,  351,  942, 1246,  330,   64,  470,  930
315,  941, 1246,  943,  483,  465,  930,  471,  116
316, 1246,  942,  484,  943,  930,  470,  118,  471
317,   12,  231,  884,  409,  349,  836, 1246,  941
318,  231,   11,  407,  884,  836,  351,  942, 1246
319,  409,  884,  408,   92,  941, 1246,  943,  483
320,  884,  407,   91,  408, 1246,  942,  484,  943
321,  353,  839, 1247,  944,   52,  322,  926,  457
322,  839,  349,  941, 1247,  322,   60,  465,  926
323,  944, 1247,  945,  485,  457,  926,  466,  112
324, 1247,  941,  483,  945,  926,  465,  116,  466
325,   27,  259,  896,  423,  353,  839, 1247,  944
326,  259,   12,  409,  896,  839,  349,  941, 1247
327,  423,  896,  427,   99,  944, 1247,  945,  485
328,  896,  409,   92,  427, 1247,  941,  483,  945
329,  275,  842, 1248,  904,   35,  356,  946,  433
330,  842,  313,  922, 1248,  356,   56,  460,  946
331,  904, 1248,  947,  437,  433,  946,  486,  103
332, 1248,  922,  461,  947,  946,  460,  114,  486
333,   27,  353,  944,  423,  275,  842, 1248,  904
334,  353,   52,  457,  944,  842,  313,  922, 1248
335,  423,  944,  485,   99,  904, 1248,  947,  437
336,  944,  457,  112,  485, 1248,  922,  461,  947
337,  368,  877, 1249,  948,   63,  332,  820,  329
338,  877,  398,  949, 1249,  332,   61,  326,  820
339,  948, 1249,  950,  487,  329,  820,  331,   64
340, 1249,  949,  488,  950,  820,  326,   62,  331
341,   69,  342,  825,  340,  368,  877, 1249,  948
342,  342,   65,  336,  825,  877,  398,  949, 1249
343,  340,  825,  341,   72,  948, 1249,  950,  487
344,  825,  336,   68,  341, 1249,  949,  488,  950
345,    5,  221,  758,  222,  286,  872, 1250,  793
346,  221,    8,  224,  758,  872,  370,  951, 1250
347,  222,  758,  223,    6,  793, 1250,  952,  285
348,  758,  224,    7,  223, 1250,  951,  489,  952
349,  286,  872, 1250,  793,   14,  240,  766,  234
350,  872,  370,  951, 1250,  240,   10,  230,  766
351,  793, 1250,  952,  285,  234,  766,  239,   15
352, 1250,  951,  489,  952,  766,  230,   11,  239
353,   14,  280,  953,  390,  233,  867, 1251,  954
354,  280,   39,  490,  953,  867,  290,  955, 1251
355,  390,  953,  491,   84,  954, 1251,  956,  492
356,  953,  490,  123,  491, 1251,  955,  493,  956
357,  233,  867, 1251,  954,   13,  381,  861,  384
358,  867,  290,  955, 1251,  381,   32,  382,  861
359,  954, 1251,  956,  492,  384,  861,  383,   82
360, 1251,  955,  493,  956,  861,  382,   81,  383
361,   32,  381,  866,  266,  264,  864, 1252,  781
362,  381,   13,  236,  866,  864,  258,  776, 1252
363,  266,  866,  387,   31,  781, 1252,  958,  265
364,  866,  236,   16,  387, 1252,  776,  257,  958
365,  264,  864, 1252,  781,   24,  371,  957,  248
366,  864,  258,  776, 1252,  371,   25,  256,  957
367,  781, 1252,  958,  265,  248,  957,  494,   23
368, 1252,  776,  257,  958,  957,  256,   28,  494
369,   24,  371,  957,  248,  245,  859, 1253,  770
370,  371,   25,  256,  957,  859,  274,  786, 1253
371,  248,  957,  494,   23,  770, 1253,  960,  247
372,  957,  256,   28,  494, 1253,  786,  273,  960
373,  245,  859, 1253,  770,   21,  375,  959,  246
374,  859,  274,  786, 1253,  375,   33,  272,  959
375,  770, 1253,  960,  247,  246,  959,  495,   22
376, 1253,  786,  273,  960,  959,  272,   36,  495
377,    8,  347,  830,  224,  370,  853, 1254,  951
378,  347,   69,  340,  830,  853,  368,  948, 1254
379,  224,  830,  348,    7,  951, 1254,  961,  489
380,  830,  340,   72,  348, 1254,  948,  487,  961
381,  370,  853, 1254,  951,   10,  352,  834,  230
382,  853,  368,  948, 1254,  352,   63,  329,  834
383,  951, 1254,  961,  489,  230,  834,  351,   11
384, 1254,  948,  487,  961,  834,  329,   64,  351
385,   37,  298,  962,  498,  284,  847, 1255,  964
386,  298,   47,  496,  962,  847,  360,  965, 1255
387,  498,  962,  497,  125,  964, 1255,  966,  501
388,  962,  496,  124,  497, 1255,  965,  502,  966
389,  284,  847, 1255,  964,   39,  293,  963,  490
390,  847,  360,  965, 1255,  293,   41,  499,  963
391,  964, 1255,  966,  501,  490,  963,  500,  123
392, 1255,  965,  502,  966,  963,  499,  126,  500
393,  227,  845, 1256,  882,    3,  358,  967,  399
394,  845,  301,  917, 1256,  358,   46,  450,  967
395,  882, 1256,  968,  406,  399,  967,  503,   87
396, 1256,  917,  453,  968,  967,  450,  109,  503
397,    6,  278,  906,  402,  227,  845, 1256,  882
398,  278,   38,  439,  906,  845,  301,  917, 1256
399,  402,  906,  438,   89,  882, 1256,  968,  406
400,  906,  439,  105,  438, 1256,  917,  453,  968
401,   89,  406,  969,  506,  403,  883, 1257,  971
402,  406,   87,  504,  969,  883,  400,  972, 1257
403,  506,  969,  505,  128,  971, 1257,  973,  510
404,  969,  504,  127,  505, 1257,  972,  511,  973
405,  403,  883, 1257,  971,   90,  405,  970,  509
406,  883,  400,  972, 1257,  405,   88,  507,  970
407,  971, 1257,  973,  510,  509,  970,  508,  130
408, 1257,  972,  511,  973,  970,  507,  129,  508
409,  411,  888, 1258,  976,   94,  413,  974,  514
410,  888,  408,  977, 1258,  413,   92,  512,  974
411,  976, 1258,  978,  518,  514,  974,  513,  132
412, 1258,  977,  519,  978,  974,  512,  131,  513
413,   93,  414,  975,  517,  411,  888, 1258,  976
414,  414,   91,  515,  975,  888,  408,  977, 1258
415,  517,  975,  516,  134,  976, 1258,  978,  518
416,  975,  515,  133,  516, 1258,  977,  519,  978
417,  422,  893, 1259,  981,   97,  419,  979,  522
418,  893,  421,  982, 1259,  419,   98,  520,  979
419,  981, 1259,  983,  526,  522,  979,  521,  136
420, 1259,  982,  527,  983,  979,  520,  135,  521
421,   95,  416,  980,  525,  422,  893, 1259,  981
422,  416,   96,  523,  980,  893,  421,  982, 1259
423,  525,  980,  524,  138,  981, 1259,  983,  526
424,  980,  523,  137,  524, 1259,  982,  527,  983
425,   94,  413,  974,  514,  426,  897, 1260,  985
426,  413,   92,  512,  974,  897,  427,  986, 1260
427,  514,  974,  513,  132,  985, 1260,  987,  531
428,  974,  512,  131,  513, 1260,  986,  532,  987
429,  426,  897, 1260,  985,  100,  424,  984,  530
430,  897,  427,  986, 1260,  424,   99,  528,  984
431,  985, 1260,  987,  531,  530,  984,  529,  140
432, 1260,  986,  532,  987,  984,  528,  139,  529
433,  421,  901, 1261,  982,   98,  430,  988,  520
434,  901,  432,  990, 1261,  430,  102,  533,  988
435,  982, 1261,  991,  527,  520,  988,  534,  135
436, 1261,  990,  537,  991,  988,  533,  141,  534
437,   96,  428,  989,  523,  421,  901, 1261,  982
438,  428,  101,  535,  989,  901,  432,  990, 1261
439,  523,  989,  536,  137,  982, 1261,  991,  527
440,  989,  535,  142,  536, 1261,  990,  537,  991
441,  100,  424,  984,  530,  436,  905, 1262,  993
442,  424,   99,  528,  984,  905,  437,  994, 1262
443,  530,  984,  529,  140,  993, 1262,  995,  541
444,  984,  528,  139,  529, 1262,  994,  542,  995
445,  436,  905, 1262,  993,  104,  434,  992,  540
446,  905,  437,  994, 1262,  434,  103,  538,  992
447,  993, 1262,  995,  541,  540,  992,  539,  144
448, 1262,  994,  542,  995,  992,  538,  143,  539
449,  442,  910, 1263,  998,  106,  440,  996,  544
450,  910,  443,  999, 1263,  440,   93,  517,  996
451,  998, 1263, 1000,  547,  544,  996,  543,  145
452, 1263,  999,  548, 1000,  996,  517,  134,  543
453,  105,  438,  997,  546,  442,  910, 1263,  998
454,  438,   89,  506,  997,  910,  443,  999, 1263
455,  546,  997,  545,  146,  998, 1263, 1000,  547
456,  997,  506,  128,  545, 1263,  999,  548, 1000
457,  432,  914, 1264,  990,  102,  446, 1001,  533
458,  914,  447, 1003, 1264,  446,  106,  544, 1001
459,  990, 1264, 1004,  537,  533, 1001,  549,  141
460, 1264, 1003,  552, 1004, 1001,  544,  145,  549
461,  101,  444, 1002,  535,  432,  914, 1264,  990
462,  444,  107,  550, 1002,  914,  447, 1003, 1264
463,  535, 1002,  551,  142,  990, 1264, 1004,  537
464, 1002,  550,  147,  551, 1264, 1003,  552, 1004
465,  454,  919, 1265, 1007,  110,  452, 1005,  554
466,  919,  453, 1008, 1265,  452,  105,  546, 1005
467, 1007, 1265, 1009,  558,  554, 1005,  553,  148
468, 1265, 1008,  559, 1009, 1005,  546,  146,  553
469,  108,  449, 1006,  557,  454,  919, 1265, 1007
470,  449,  109,  555, 1006,  919,  453, 1008, 1265
471,  557, 1006,  556,  150, 1007, 1265, 1009,  558
472, 1006,  555,  149,  556, 1265, 1008,  559, 1009
473,  112,  456, 1010,  562,  461,  924, 1266, 1012
474,  456,  111,  560, 1010,  924,  462, 1013, 1266
475,  562, 1010,  561,  152, 1012, 1266, 1014,  566
476, 1010,  560,  151,  561, 1266, 1013,  567, 1014
477,  461,  924, 1266, 1012,  114,  459, 1011,  565
478,  924,  462, 1013, 1266,  459,  113,  563, 1011
479, 1012, 1266, 1014,  566,  565, 1011,  564,  154
480, 1266, 1013,  567, 1014, 1011,  563,  153,  564
481,  112,  466, 1015,  562,  456,  928, 1267, 1010
482,  466,  116,  568, 1015,  928,  467, 1017, 1267
483,  562, 1015,  569,  152, 1010, 1267, 1018,  561
484, 1015,  568,  155,  569, 1267, 1017,  572, 1018
485,  456,  928, 1267, 1010,  111,  464, 1016,  560
486,  928,  467, 1017, 1267,  464,  115,  570, 1016
487, 1010, 1267, 1018,  561,  560, 1016,  571,  151
488, 1267, 1017,  572, 1018, 1016,  570,  156,  571
489,  116,  471, 1019,  568,  467,  932, 1268, 1017
490,  471,  118,  573, 1019,  932,  472, 1021, 1268
491,  568, 1019,  574,  155, 1017, 1268, 1022,  572
492, 1019,  573,  157,  574, 1268, 1021,  577, 1022
493,  467,  932, 1268, 1017,  115,  469, 1020,  570
494,  932,  472, 1021, 1268,  469,  117,  575, 1020
495, 1017, 1268, 1022,  572,  570, 1020,  576,  156
496, 1268, 1021,  577, 1022, 1020,  575,  158,  576
497,  474,  937, 1269, 1025,  119,  480, 1023,  580
498,  937,  477, 1026, 1269,  480,  121,  578, 1023
499, 1025, 1269, 1027,  584,  580, 1023,  579,  160
500, 1269, 1026,  585, 1027, 1023,  578,  159,  579
501,  120,  479, 1024,  583,  474,  937, 1269, 1025
502,  479,  122,  581, 1024,  937,  477, 1026, 1269
503,  583, 1024,  582,  162, 1025, 1269, 1027,  584
504, 1024,  581,  161,  582, 1269, 1026,  585, 1027
505,  405,  940, 1270,  970,   90,  482, 1028,  509
506,  940,  477, 1026, 1270,  482,  122,  581, 1028
507,  970, 1270, 1030,  508,  509, 1028,  586,  130
508, 1270, 1026,  585, 1030, 1028,  581,  161,  586
509,   88,  481, 1029,  507,  405,  940, 1270,  970
510,  481,  121,  578, 1029,  940,  477, 1026, 1270
511,  507, 1029,  587,  129,  970, 1270, 1030,  508
512, 1029,  578,  159,  587, 1270, 1026,  585, 1030
513,  408,  943, 1271,  977,   92,  483, 1031,  512
514,  943,  471, 1019, 1271,  483,  116,  568, 1031
515,  977, 1271, 1033,  519,  512, 1031,  588,  131
516, 1271, 1019,  574, 1033, 1031,  568,  155,  588
517,   91,  484, 1032,  515,  408,  943, 1271,  977
518,  484,  118,  573, 1032,  943,  471, 1019, 1271
519,  515, 1032,  589,  133,  977, 1271, 1033,  519
520, 1032,  573,  157,  589, 1271, 1019,  574, 1033
521,   92,  483, 1031,  512,  427,  945, 1272,  986
522,  483,  116,  568, 1031,  945,  466, 1015, 1272
523,  512, 1031,  588,  131,  986, 1272, 1035,  532
524, 1031,  568,  155,  588, 1272, 1015,  569, 1035
525,  427,  945, 1272,  986,   99,  485, 1034,  528
526,  945,  466, 1015, 1272,  485,  112,  562, 1034
527,  986, 1272, 1035,  532,  528, 1034,  590,  139
528, 1272, 1015,  569, 1035, 1034,  562,  152,  590
529,   99,  485, 1034,  528,  437,  947, 1273,  994
530,  485,  112,  562, 1034,  947,  461, 1012, 1273
531,  528, 1034,  590,  139,  994, 1273, 1037,  542
532, 1034,  562,  152,  590, 1273, 1012,  566, 1037
533,  437,  947, 1273,  994,  103,  486, 1036,  538
534,  947,  461, 1012, 1273,  486,  114,  565, 1036
535,  994, 1273, 1037,  542,  538, 1036,  591,  143
536, 1273, 1012,  566, 1037, 1036,  565,  154,  591
537,  122,  479, 1024,  581,  593, 1040, 1274, 1038
538,  479,  120,  583, 1024, 1040,  595, 1039, 1274
539,  581, 1024,  582,  161, 1038, 1274, 1041,  592
540, 1024,  583,  162,  582, 1274, 1039,  594, 1041
541,  593, 1040, 1274, 1038,  118,  472, 1021,  573
542, 1040,  595, 1039, 1274,  472,  117,  575, 1021
543, 1038, 1274, 1041,  592,  573, 1021,  577,  157
544, 1274, 1039,  594, 1041, 1021,  575,  158,  577
545,  443, 1043, 1275,  999,   93,  414,  975,  517
546, 1043,  597, 1042, 1275,  414,   91,  515,  975
547,  999, 1275, 1044,  548,  517,  975,  516,  134
548, 1275, 1042,  596, 1044,  975,  515,  133,  516
549,   89,  403,  971,  506,  443, 1043, 1275,  999
550,  403,   90,  509,  971, 1043,  597, 1042, 1275
551,  506,  971,  510,  128,  999, 1275, 1044,  548
552,  971,  509,  130,  510, 1275, 1042,  596, 1044
553,  302,  844, 1276, 1047,   43,  357, 1045,  600
554,  844,  228, 1048, 1276,  357,    2,  598, 1045
555, 1047, 1276, 1049,  602,  600, 1045,  599,  164
556, 1276, 1048,  603, 1049, 1045,  598,  163,  599
557,   37,  277, 1046,  498,  302,  844, 1276, 1047
558,  277,    5,  388, 1046,  844,  228, 1048, 1276
559,  498, 1046,  601,  125, 1047, 1276, 1049,  602
560, 1046,  388,   83,  601, 1276, 1048,  603, 1049
561,  446, 1051, 1277, 1001,  102,  604, 1050,  533
562, 1051,  411,  976, 1277,  604,   94,  514, 1050
563, 1001, 1277, 1052,  549,  533, 1050,  605,  141
564, 1277,  976,  518, 1052, 1050,  514,  132,  605
565,  106,  440,  996,  544,  446, 1051, 1277, 1001
566,  440,   93,  517,  996, 1051,  411,  976, 1277
567,  544,  996,  543,  145, 1001, 1277, 1052,  549
568,  996,  517,  134,  543, 1277,  976,  518, 1052
569,  430, 1054, 1278,  988,   98,  606, 1053,  520
570, 1054,  426,  985, 1278,  606,  100,  530, 1053
571,  988, 1278, 1055,  534,  520, 1053,  607,  135
572, 1278,  985,  531, 1055, 1053,  530,  140,  607
573,  102,  604, 1050,  533,  430, 1054, 1278,  988
574,  604,   94,  514, 1050, 1054,  426,  985, 1278
575,  533, 1050,  605,  141,  988, 1278, 1055,  534
576, 1050,  514,  132,  605, 1278,  985,  531, 1055
577,  419, 1057, 1279,  979,   97,  608, 1056,  522
578, 1057,  436,  993, 1279,  608,  104,  540, 1056
579,  979, 1279, 1058,  521,  522, 1056,  609,  136
580, 1279,  993,  541, 1058, 1056,  540,  144,  609
581,   98,  606, 1053,  520,  419, 1057, 1279,  979
582,  606,  100,  530, 1053, 1057,  436,  993, 1279
583,  520, 1053,  607,  135,  979, 1279, 1058,  521
584, 1053,  530,  140,  607, 1279,  993,  541, 1058
585,  597, 1059, 1280, 1042,   91,  484, 1032,  515
586, 1059,  593, 1038, 1280,  484,  118,  573, 1032
587, 1042, 1280, 1060,  596,  515, 1032,  589,  133
588, 1280, 1038,  592, 1060, 1032,  573,  157,  589
589,   90,  482, 1028,  509,  597, 1059, 1280, 1042
590,  482,  122,  581, 1028, 1059,  593, 1038, 1280
591,  509, 1028,  586,  130, 1042, 1280, 1060,  596
592, 1028,  581,  161,  586, 1280, 1038,  592, 1060
593,  611, 1062, 1281, 1061,  107,  447, 1003,  550
594, 1062,  442,  998, 1281,  447,  106,  544, 1003
595, 1061, 1281, 1063,  610,  550, 1003,  552,  147
596, 1281,  998,  547, 1063, 1003,  544,  145,  552
597,  110,  452, 1005,  554,  611, 1062, 1281, 1061
598,  452,  105,  546, 1005, 1062,  442,  998, 1281
599,  554, 1005,  553,  148, 1061, 1281, 1063,  610
600, 1005,  546,  146,  553, 1281,  998,  547, 1063
601,  505,  973, 1282, 1066,  128,  510, 1064,  614
602,  973,  508, 1067, 1282,  510,  130,  612, 1064
603, 1066, 1282, 1068,  618,  614, 1064,  613,  166
604, 1282, 1067,  619, 1068, 1064,  612,  165,  613
605,  127,  511, 1065,  617,  505,  973, 1282, 1066
606,  511,  129,  615, 1065,  973,  508, 1067, 1282
607,  617, 1065,  616,  168, 1066, 1282, 1068,  618
608, 1065,  615,  167,  616, 1282, 1067,  619, 1068
609,  518,  978, 1283, 1071,  132,  513, 1069,  622
610,  978,  519, 1072, 1283,  513,  131,  620, 1069
611, 1071, 1283, 1073,  626,  622, 1069,  621,  170
612, 1283, 1072,  627, 1073, 1069,  620,  169,  621
613,  134,  516, 1070,  625,  518,  978, 1283, 1071
614,  516,  133,  623, 1070,  978,  519, 1072, 1283
615,  625, 1070,  624,  172, 1071, 1283, 1073,  626
616, 1070,  623,  171,  624, 1283, 1072,  627, 1073
617,   48,  300,  916,  451,  359,  848, 1284, 1074
618,  300,   38,  439,  916,  848,  283,  908, 1284
619,  451,  916,  452,  110, 1074, 1284, 1062,  611
620,  916,  439,  105,  452, 1284,  908,  442, 1062
621,  359,  848, 1284, 1074,   42,  292,  913,  445
622,  848,  283,  908, 1284,  292,   40,  441,  913
623, 1074, 1284, 1062,  611,  445,  913,  447,  107
624, 1284,  908,  442, 1062,  913,  441,  106,  447
625,  524,  983, 1285, 1077,  138,  526, 1075,  630
626,  983,  521, 1078, 1285,  526,  136,  628, 1075
627, 1077, 1285, 1079,  634,  630, 1075,  629,  174
628, 1285, 1078,  635, 1079, 1075,  628,  173,  629
629,  137,  527, 1076,  633,  524,  983, 1285, 1077
630,  527,  135,  631, 1076,  983,  521, 1078, 1285
631,  633, 1076,  632,  176, 1077, 1285, 1079,  634
632, 1076,  631,  175,  632, 1285, 1078,  635, 1079
633,  531,  987, 1286, 1081,  140,  529, 1080,  638
634,  987,  532, 1082, 1286,  529,  139,  636, 1080
635, 1081, 1286, 1083,  639,  638, 1080,  637,  178
636, 1286, 1082,  640, 1083, 1080,  636,  177,  637
637,  132,  513, 1069,  622,  531,  987, 1286, 1081
638,  513,  131,  620, 1069,  987,  532, 1082, 1286
639,  622, 1069,  621,  170, 1081, 1286, 1083,  639
640, 1069,  620,  169,  621, 1286, 1082,  640, 1083
641,  536,  991, 1287, 1085,  137,  527, 1076,  633
642,  991,  534, 1086, 1287,  527,  135,  631, 1076
643, 1085, 1287, 1087,  644,  633, 1076,  632,  176
644, 1287, 1086,  645, 1087, 1076,  631,  175,  632
645,  142,  537, 1084,  643,  536,  991, 1287, 1085
646,  537,  141,  641, 1084,  991,  534, 1086, 1287
647,  643, 1084,  642,  180, 1085, 1287, 1087,  644
648, 1084,  641,  179,  642, 1287, 1086,  645, 1087
649,  541,  995, 1288, 1089,  144,  539, 1088,  648
650,  995,  542, 1090, 1288,  539,  143,  646, 1088
651, 1089, 1288, 1091,  649,  648, 1088,  647,  182
652, 1288, 1090,  650, 1091, 1088,  646,  181,  647
653,  140,  529, 1080,  638,  541,  995, 1288, 1089
654,  529,  139,  636, 1080,  995,  542, 1090, 1288
655,  638, 1080,  637,  178, 1089, 1288, 1091,  649
656, 1080,  636,  177,  637, 1288, 1090,  650, 1091
657,  547, 1000, 1289, 1094,  145,  543, 1092,  652
658, 1000,  548, 1095, 1289,  543,  134,  625, 1092
659, 1094, 1289, 1096,  655,  652, 1092,  651,  183
660, 1289, 1095,  656, 1096, 1092,  625,  172,  651
661,  146,  545, 1093,  654,  547, 1000, 1289, 1094
662,  545,  128,  614, 1093, 1000,  548, 1095, 1289
663,  654, 1093,  653,  184, 1094, 1289, 1096,  655
664, 1093,  614,  166,  653, 1289, 1095,  656, 1096
665,  551, 1004, 1290, 1098,  142,  537, 1084,  643
666, 1004,  549, 1099, 1290,  537,  141,  641, 1084
667, 1098, 1290, 1100,  659,  643, 1084,  642,  180
668, 1290, 1099,  660, 1100, 1084,  641,  179,  642
669,  147,  552, 1097,  658,  551, 1004, 1290, 1098
670,  552,  145,  652, 1097, 1004,  549, 1099, 1290
671,  658, 1097,  657,  185, 1098, 1290, 1100,  659
672, 1097,  652,  183,  657, 1290, 1099,  660, 1100
673,  558, 1009, 1291, 1103,  148,  553, 1101,  662
674, 1009,  559, 1104, 1291,  553,  146,  654, 1101
675, 1103, 1291, 1105,  666,  662, 1101,  661,  186
676, 1291, 1104,  667, 1105, 1101,  654,  184,  661
677,  150,  556, 1102,  665,  558, 1009, 1291, 1103
678,  556,  149,  663, 1102, 1009,  559, 1104, 1291
679,  665, 1102,  664,  188, 1103, 1291, 1105,  666
680, 1102,  663,  187,  664, 1291, 1104,  667, 1105
681,    7,  348,  939,  404,  489,  961, 1292, 1106
682,  348,   72,  478,  939,  961,  487, 1107, 1292
683,  404,  939,  482,   90, 1106, 1292, 1059,  597
684,  939,  478,  122,  482, 1292, 1107,  593, 1059
685,  489,  961, 1292, 1106,   11,  351,  942,  407
686,  961,  487, 1107, 1292,  351,   64,  470,  942
687, 1106, 1292, 1059,  597,  407,  942,  484,   91
688, 1292, 1107,  593, 1059,  942,  470,  118,  484
689,   23,  494, 1108,  420,  247,  960, 1293,  890
690,  494,   28,  425, 1108,  960,  273,  903, 1293
691,  420, 1108,  606,   98,  890, 1293, 1057,  419
692, 1108,  425,  100,  606, 1293,  903,  436, 1057
693,  247,  960, 1293,  890,   22,  495, 1109,  418
694,  960,  273,  903, 1293,  495,   36,  435, 1109
695,  890, 1293, 1057,  419,  418, 1109,  608,   97
696, 1293,  903,  436, 1057, 1109,  435,  104,  608
697,   31,  387, 1110,  431,  265,  958, 1294,  899
698,  387,   16,  412, 1110,  958,  257,  895, 1294
699,  431, 1110,  604,  102,  899, 1294, 1054,  430
700, 1110,  412,   94,  604, 1294,  895,  426, 1054
701,  265,  958, 1294,  899,   23,  494, 1108,  420
702,  958,  257,  895, 1294,  494,   28,  425, 1108
703,  899, 1294, 1054,  430,  420, 1108,  606,   98
704, 1294,  895,  426, 1054, 1108,  425,  100,  606
705,   40,  281,  907,  441,  291,  868, 1295,  912
706,  281,   15,  410,  907,  868,  235,  885, 1295
707,  441,  907,  440,  106,  912, 1295, 1051,  446
708,  907,  410,   93,  440, 1295,  885,  411, 1051
709,  291,  868, 1295,  912,   31,  387, 1110,  431
710,  868,  235,  885, 1295,  387,   16,  412, 1110
711,  912, 1295, 1051,  446,  431, 1110,  604,  102
712, 1295,  885,  411, 1051, 1110,  412,   94,  604
713,  453,  968, 1296, 1008,  105,  438,  997,  546
714,  968,  406,  969, 1296,  438,   89,  506,  997
715, 1008, 1296, 1112,  559,  546,  997,  545,  146
716, 1296,  969,  505, 1112,  997,  506,  128,  545
717,  109,  503, 1111,  555,  453,  968, 1296, 1008
718,  503,   87,  504, 1111,  968,  406,  969, 1296
719,  555, 1111,  668,  149, 1008, 1296, 1112,  559
720, 1111,  504,  127,  668, 1296,  969,  505, 1112
721,    6,  223,  880,  402,  285,  952, 1297,  909
722,  223,    7,  404,  880,  952,  489, 1106, 1297
723,  402,  880,  403,   89,  909, 1297, 1043,  443
724,  880,  404,   90,  403, 1297, 1106,  597, 1043
725,  285,  952, 1297,  909,   15,  239,  887,  410
726,  952,  489, 1106, 1297,  239,   11,  407,  887
727,  909, 1297, 1043,  443,  410,  887,  414,   93
728, 1297, 1106,  597, 1043,  887,  407,   91,  414
729,  152,  561, 1113,  671,  566, 1014, 1298, 1115
730,  561,  151,  669, 1113, 1014,  567, 1116, 1298
731,  671, 1113,  670,  190, 1115, 1298, 1117,  675
732, 1113,  669,  189,  670, 1298, 1116,  676, 1117
733,  566, 1014, 1298, 1115,  154,  564, 1114,  674
734, 1014,  567, 1116, 1298,  564,  153,  672, 1114
735, 1115, 1298, 1117,  675,  674, 1114,  673,  192
736, 1298, 1116,  676, 1117, 1114,  672,  191,  673
737,  155,  572, 1118,  679,  569, 1018, 1299, 1119
738,  572,  156,  677, 1118, 1018,  571, 1120, 1299
739,  679, 1118,  678,  194, 1119, 1299, 1121,  680
740, 1118,  677,  193,  678, 1299, 1120,  681, 1121
741,  569, 1018, 1299, 1119,  152,  561, 1113,  671
742, 1018,  571, 1120, 1299,  561,  151,  669, 1113
743, 1119, 1299, 1121,  680,  671, 1113,  670,  190
744, 1299, 1120,  681, 1121, 1113,  669,  189,  670
745,  157,  577, 1122,  684,  574, 1022, 1300, 1123
746,  577,  158,  682, 1122, 1022,  576, 1124, 1300
747,  684, 1122,  683,  196, 1123, 1300, 1125,  685
748, 1122,  682,  195,  683, 1300, 1124,  686, 1125
749,  574, 1022, 1300, 1123,  155,  572, 1118,  679
750, 1022,  576, 1124, 1300,  572,  156,  677, 1118
751, 1123, 1300, 1125,  685,  679, 1118,  678,  194
752, 1300, 1124,  686, 1125, 1118,  677,  193,  678
753,  584, 1027, 1301, 1128,  160,  579, 1126,  689
754, 1027,  585, 1129, 1301,  579,  159,  687, 1126
755, 1128, 1301, 1130,  693,  689, 1126,  688,  198
756, 1301, 1129,  694, 1130, 1126,  687,  197,  688
757,  162,  582, 1127,  692,  584, 1027, 1301, 1128
758,  582,  161,  690, 1127, 1027,  585, 1129, 1301
759,  692, 1127,  691,  200, 1128, 1301, 1130,  693
760, 1127,  690,  199,  691, 1301, 1129,  694, 1130
761,  508, 1030, 1302, 1067,  130,  586, 1131,  612
762, 1030,  585, 1129, 1302,  586,  161,  690, 1131
763, 1067, 1302, 1133,  619,  612, 1131,  695,  165
764, 1302, 1129,  694, 1133, 1131,  690,  199,  695
765,  129,  587, 1132,  615,  508, 1030, 1302, 1067
766,  587,  159,  687, 1132, 1030,  585, 1129, 1302
767,  615, 1132,  696,  167, 1067, 1302, 1133,  619
768, 1132,  687,  197,  696, 1302, 1129,  694, 1133
769,  519, 1033, 1303, 1072,  131,  588, 1134,  620
770, 1033,  574, 1123, 1303,  588,  155,  679, 1134
771, 1072, 1303, 1136,  627,  620, 1134,  697,  169
772, 1303, 1123,  685, 1136, 1134,  679,  194,  697
773,  133,  589, 1135,  623,  519, 1033, 1303, 1072
774,  589,  157,  684, 1135, 1033,  574, 1123, 1303
775,  623, 1135,  698,  171, 1072, 1303, 1136,  627
776, 1135,  684,  196,  698, 1303, 1123,  685, 1136
777,  532, 1035, 1304, 1082,  139,  590, 1137,  636
778, 1035,  569, 1119, 1304,  590,  152,  671, 1137
779, 1082, 1304, 1138,  640,  636, 1137,  699,  177
780, 1304, 1119,  680, 1138, 1137,  671,  190,  699
781,  131,  588, 1134,  620,  532, 1035, 1304, 1082
782,  588,  155,  679, 1134, 1035,  569, 1119, 1304
783,  620, 1134,  697,  169, 1082, 1304, 1138,  640
784, 1134,  679,  194,  697, 1304, 1119,  680, 1138
785,  542, 1037, 1305, 1090,  143,  591, 1139,  646
786, 1037,  566, 1115, 1305,  591,  154,  674, 1139
787, 1090, 1305, 1140,  650,  646, 1139,  700,  181
788, 1305, 1115,  675, 1140, 1139,  674,  192,  700
789,  139,  590, 1137,  636,  542, 1037, 1305, 1090
790,  590,  152,  671, 1137, 1037,  566, 1115, 1305
791,  636, 1137,  699,  177, 1090, 1305, 1140,  650
792, 1137,  671,  190,  699, 1305, 1115,  675, 1140
793,  487,  950, 1306, 1107,   64,  331,  931,  470
794,  950,  488, 1141, 1306,  331,   62,  468,  931
795, 1107, 1306, 1040,  593,  470,  931,  472,  118
796, 1306, 1141,  595, 1040,  931,  468,  117,  472
797,   72,  341,  935,  478,  487,  950, 1306, 1107
798,  341,   68,  475,  935,  950,  488, 1141, 1306
799,  478,  935,  479,  122, 1107, 1306, 1040,  593
800,  935,  475,  120,  479, 1306, 1141,  595, 1040
801,  690, 1143, 1307, 1127,  199,  701, 1142,  691
802, 1143,  684, 1122, 1307,  701,  196,  683, 1142
803, 1127, 1307, 1144,  692,  691, 1142,  702,  200
804, 1307, 1122,  682, 1144, 1142,  683,  195,  702
805,  161,  592, 1041,  582,  690, 1143, 1307, 1127
806,  592,  157,  577, 1041, 1143,  684, 1122, 1307
807,  582, 1041,  594,  162, 1127, 1307, 1144,  692
808, 1041,  577,  158,  594, 1307, 1122,  682, 1144
809,  708, 1148, 1308, 1146,  201,  703, 1145,  706
810, 1148,  710, 1147, 1308,  703,  202,  704, 1145
811, 1146, 1308, 1149,  707,  706, 1145,  705,  204
812, 1308, 1147,  709, 1149, 1145,  704,  203,  705
813,   49,  314,  841,  354,  708, 1148, 1308, 1146
814,  314,   53,  355,  841, 1148,  710, 1147, 1308
815,  354,  841,  276,   26, 1146, 1308, 1149,  707
816,  841,  355,   34,  276, 1308, 1147,  709, 1149
817,  715, 1152, 1309, 1151,  205,  711, 1150,  713
818, 1152,  708, 1146, 1309,  711,  201,  706, 1150
819, 1151, 1309, 1153,  714,  713, 1150,  712,  206
820, 1309, 1146,  707, 1153, 1150,  706,  204,  712
821,   59,  320,  838,  350,  715, 1152, 1309, 1151
822,  320,   49,  354,  838, 1152,  708, 1146, 1309
823,  350,  838,  260,    9, 1151, 1309, 1153,  714
824,  838,  354,   26,  260, 1309, 1146,  707, 1153
825,  366, 1155, 1310,  850,   76,  716, 1154,  365
826, 1155,  715, 1151, 1310,  716,  205,  713, 1154
827,  850, 1310, 1156,  364,  365, 1154,  717,   75
828, 1310, 1151,  714, 1156, 1154,  713,  206,  717
829,   63,  328,  835,  352,  366, 1155, 1310,  850
830,  328,   59,  350,  835, 1155,  715, 1151, 1310
831,  352,  835,  229,   10,  850, 1310, 1156,  364
832,  835,  350,    9,  229, 1310, 1151,  714, 1156
833,  722, 1159, 1311, 1158,  207,  718, 1157,  720
834, 1159,  363,  849, 1311,  718,   74,  362, 1157
835, 1158, 1311, 1160,  721,  720, 1157,  719,  208
836, 1311,  849,  361, 1160, 1157,  362,   73,  719
837,   70,  337,  831,  345,  722, 1159, 1311, 1158
838,  337,   69,  347,  831, 1159,  363,  849, 1311
839,  345,  831,  226,    1, 1158, 1311, 1160,  721
840,  831,  347,    8,  226, 1311,  849,  361, 1160
841,  363, 1159, 1312,  875,   74,  718, 1161,  395
842, 1159,  722, 1162, 1312,  718,  207,  723, 1161
843,  875, 1312, 1163,  396,  395, 1161,  724,   86
844, 1312, 1162,  725, 1163, 1161,  723,  209,  724
845,   69,  337,  827,  342,  363, 1159, 1312,  875
846,  337,   70,  344,  827, 1159,  722, 1162, 1312
847,  342,  827,  333,   65,  875, 1312, 1163,  396
848,  827,  344,   66,  333, 1312, 1162,  725, 1163
849,  715, 1155, 1313, 1165,  205,  716, 1164,  727
850, 1155,  366,  874, 1313,  716,   76,  393, 1164
851, 1165, 1313, 1166,  728,  727, 1164,  726,  210
852, 1313,  874,  394, 1166, 1164,  393,   85,  726
853,   59,  328,  821,  324,  715, 1155, 1313, 1165
854,  328,   63,  332,  821, 1155,  366,  874, 1313
855,  324,  821,  325,   57, 1165, 1313, 1166,  728
856,  821,  332,   61,  325, 1313,  874,  394, 1166
857,  708, 1152, 1314, 1168,  201,  711, 1167,  730
858, 1152,  715, 1165, 1314,  711,  205,  727, 1167
859, 1168, 1314, 1169,  731,  730, 1167,  729,  211
860, 1314, 1165,  728, 1169, 1167,  727,  210,  729
861,   49,  320,  816,  305,  708, 1152, 1314, 1168
862,  320,   59,  324,  816, 1152,  715, 1165, 1314
863,  305,  816,  317,   50, 1168, 1314, 1169,  731
864,  816,  324,   57,  317, 1314, 1165,  728, 1169
865,  710, 1148, 1315, 1171,  202,  703, 1170,  733
866, 1148,  708, 1168, 1315,  703,  201,  730, 1170
867, 1171, 1315, 1172,  734,  733, 1170,  732,  212
868, 1315, 1168,  731, 1172, 1170,  730,  211,  732
869,   53,  314,  811,  309,  710, 1148, 1315, 1171
870,  314,   49,  305,  811, 1148,  708, 1168, 1315
871,  309,  811,  316,   54, 1171, 1315, 1172,  734
872,  811,  305,   50,  316, 1315, 1168,  731, 1172
873,  623, 1174, 1316, 1070,  171,  735, 1173,  624
874, 1174,  612, 1064, 1316,  735,  165,  613, 1173
875, 1070, 1316, 1095,  625,  624, 1173,  656,  172
876, 1316, 1064,  614, 1095, 1173,  613,  166,  656
877,  133,  596, 1044,  516,  623, 1174, 1316, 1070
878,  596,  130,  510, 1044, 1174,  612, 1064, 1316
879,  516, 1044,  548,  134, 1070, 1316, 1095,  625
880, 1044,  510,  128,  548, 1316, 1064,  614, 1095
881,  614, 1066, 1317, 1093,  166,  618, 1175,  653
882, 1066,  617, 1176, 1317,  618,  168,  736, 1175
883, 1093, 1317, 1104,  654,  653, 1175,  667,  184
884, 1317, 1176,  663, 1104, 1175,  736,  187,  667
885,  128,  505, 1112,  545,  614, 1066, 1317, 1093
886,  505,  127,  668, 1112, 1066,  617, 1176, 1317
887,  545, 1112,  559,  146, 1093, 1317, 1104,  654
888, 1112,  668,  149,  559, 1317, 1176,  663, 1104
889,  622, 1071, 1318, 1178,  170,  626, 1177,  737
890, 1071,  625, 1092, 1318,  626,  172,  651, 1177
891, 1178, 1318, 1099,  641,  737, 1177,  660,  179
892, 1318, 1092,  652, 1099, 1177,  651,  183,  660
893,  132,  518, 1052,  605,  622, 1071, 1318, 1178
894,  518,  134,  543, 1052, 1071,  625, 1092, 1318
895,  605, 1052,  549,  141, 1178, 1318, 1099,  641
896, 1052,  543,  145,  549, 1318, 1092,  652, 1099
897,  638, 1081, 1319, 1180,  178,  639, 1179,  738
898, 1081,  622, 1178, 1319,  639,  170,  737, 1179
899, 1180, 1319, 1086,  631,  738, 1179,  645,  175
900, 1319, 1178,  641, 1086, 1179,  737,  179,  645
901,  140,  531, 1055,  607,  638, 1081, 1319, 1180
902,  531,  132,  605, 1055, 1081,  622, 1178, 1319
903,  607, 1055,  534,  135, 1180, 1319, 1086,  631
904, 1055,  605,  141,  534, 1319, 1178,  641, 1086
905,  648, 1089, 1320, 1182,  182,  649, 1181,  739
906, 1089,  638, 1180, 1320,  649,  178,  738, 1181
907, 1182, 1320, 1078,  628,  739, 1181,  635,  173
908, 1320, 1180,  631, 1078, 1181,  738,  175,  635
909,  144,  541, 1058,  609,  648, 1089, 1320, 1182
910,  541,  140,  607, 1058, 1089,  638, 1180, 1320
911,  609, 1058,  521,  136, 1182, 1320, 1078,  628
912, 1058,  607,  135,  521, 1320, 1180,  631, 1078
913,  684, 1143, 1321, 1135,  196,  701, 1183,  698
914, 1143,  690, 1131, 1321,  701,  199,  695, 1183
915, 1135, 1321, 1174,  623,  698, 1183,  735,  171
916, 1321, 1131,  612, 1174, 1183,  695,  165,  735
917,  157,  592, 1060,  589,  684, 1143, 1321, 1135
918,  592,  161,  586, 1060, 1143,  690, 1131, 1321
919,  589, 1060,  596,  133, 1135, 1321, 1174,  623
920, 1060,  586,  130,  596, 1321, 1131,  612, 1174
921,  600, 1047, 1322, 1185,  164,  602, 1184,  741
922, 1047,  498,  962, 1322,  602,  125,  497, 1184
923, 1185, 1322, 1186,  742,  741, 1184,  740,  213
924, 1322,  962,  496, 1186, 1184,  497,  124,  740
925,   43,  302,  805,  294,  600, 1047, 1322, 1185
926,  302,   37,  298,  805, 1047,  498,  962, 1322
927,  294,  805,  304,   44, 1185, 1322, 1186,  742
928,  805,  298,   47,  304, 1322,  962,  496, 1186
929,  490,  955, 1323,  963,  123,  493, 1187,  500
930,  955,  382, 1188, 1323,  493,   81,  743, 1187
931,  963, 1323, 1189,  499,  500, 1187,  744,  126
932, 1323, 1188,  745, 1189, 1187,  743,  214,  744
933,   39,  290,  799,  293,  490,  955, 1323,  963
934,  290,   32,  268,  799,  955,  382, 1188, 1323
935,  293,  799,  287,   41,  963, 1323, 1189,  499
936,  799,  268,   29,  287, 1323, 1188,  745, 1189
937,  388,  871, 1324, 1046,   83,  392, 1190,  601
938,  871,  390,  953, 1324,  392,   84,  491, 1190
939, 1046, 1324,  964,  498,  601, 1190,  501,  125
940, 1324,  953,  490,  964, 1190,  491,  123,  501
941,    5,  286,  794,  277,  388,  871, 1324, 1046
942,  286,   14,  280,  794,  871,  390,  953, 1324
943,  277,  794,  284,   37, 1046, 1324,  964,  498
944,  794,  280,   39,  284, 1324,  953,  490,  964
945,  707, 1149, 1325, 1192,  204,  705, 1191,  747
946, 1149,  709, 1193, 1325,  705,  203,  746, 1191
947, 1192, 1325,  857,  374,  747, 1191,  379,   78
948, 1325, 1193,  378,  857, 1191,  746,   80,  379
949,   26,  276,  788,  253,  707, 1149, 1325, 1192
950,  276,   34,  269,  788, 1149,  709, 1193, 1325
951,  253,  788,  274,   25, 1192, 1325,  857,  374
952,  788,  269,   33,  274, 1325, 1193,  378,  857
953,  382,  863, 1326, 1188,   81,  386, 1194,  743
954,  863,  372, 1195, 1326,  386,   77,  748, 1194
955, 1188, 1326, 1196,  745,  743, 1194,  749,  214
956, 1326, 1195,  750, 1196, 1194,  748,  215,  749
957,   32,  264,  783,  268,  382,  863, 1326, 1188
958,  264,   24,  250,  783,  863,  372, 1195, 1326
959,  268,  783,  261,   29, 1188, 1326, 1196,  745
960,  783,  250,   17,  261, 1326, 1195,  750, 1196
961,  714, 1153, 1327, 1198,  206,  712, 1197,  751
962, 1153,  707, 1192, 1327,  712,  204,  747, 1197
963, 1198, 1327,  862,  384,  751, 1197,  385,   82
964, 1327, 1192,  374,  862, 1197,  747,   78,  385
965,    9,  260,  778,  238,  714, 1153, 1327, 1198
966,  260,   26,  253,  778, 1153,  707, 1192, 1327
967,  238,  778,  258,   13, 1198, 1327,  862,  384
968,  778,  253,   25,  258, 1327, 1192,  374,  862
969,  372,  858, 1328, 1195,   77,  380, 1199,  748
970,  858,  376, 1200, 1328,  380,   79,  752, 1199
971, 1195, 1328, 1201,  750,  748, 1199,  753,  215
972, 1328, 1200,  754, 1201, 1199,  752,  216,  753
973,   24,  245,  773,  250,  372,  858, 1328, 1195
974,  245,   21,  252,  773,  858,  376, 1200, 1328
975,  250,  773,  241,   17, 1195, 1328, 1201,  750
976,  773,  252,   18,  241, 1328, 1200,  754, 1201
977,  652, 1094, 1329, 1097,  183,  655, 1202,  657
978, 1094,  654, 1101, 1329,  655,  184,  661, 1202
979, 1097, 1329, 1203,  658,  657, 1202,  755,  185
980, 1329, 1101,  662, 1203, 1202,  661,  186,  755
981,  145,  547, 1063,  552,  652, 1094, 1329, 1097
982,  547,  146,  553, 1063, 1094,  654, 1101, 1329
983,  552, 1063,  610,  147, 1097, 1329, 1203,  658
984, 1063,  553,  148,  610, 1329, 1101,  662, 1203
985,  364, 1156, 1330,  870,   75,  717, 1204,  391
986, 1156,  714, 1198, 1330,  717,  206,  751, 1204
987,  870, 1330,  954,  390,  391, 1204,  492,   84
988, 1330, 1198,  384,  954, 1204,  751,   82,  492
989,   10,  229,  767,  240,  364, 1156, 1330,  870
990,  229,    9,  238,  767, 1156,  714, 1198, 1330
991,  240,  767,  233,   14,  870, 1330,  954,  390
992,  767,  238,   13,  233, 1330, 1198,  384,  954
 993,  721, 1160, 1331, 1206,  208,  719, 1205,  756
 994, 1160,  361,  869, 1331,  719,   73,  389, 1205
 995, 1206, 1331, 1048,  598,  756, 1205,  603,  163
 996, 1331,  869,  388, 1048, 1205,  389,   83,  603
 997,    1,  226,  761,  217,  721, 1160, 1331, 1206
 998,  226,    8,  221,  761, 1160,  361,  869, 1331
 999,  217,  761,  228,    2, 1206, 1331, 1048,  598
1000,  761,  221,    5,  228, 1331,  869,  388, 1048
*Nset, nset=Set-1
  146,  148,  149,  150,  184,  186,  187,  188,  553,  556,  558,  559,  654,  661,  662,  663
  664,  665,  666,  667, 1009, 1101, 1102, 1103, 1104, 1105, 1291
*Elset, elset=Set-1, generate
 673,  680,    1
*Nset, nset=Set-2
  145,  146,  147,  148,  183,  184,  185,  186,  547,  552,  553,  610,  652,  654,  655,  657
  658,  661,  662,  755, 1063, 1094, 1097, 1101, 1202, 1203, 1329
*Elset, elset=Set-2, generate
 977,  984,    1
*Nset, nset=Set-3
  141,  142,  145,  147,  179,  180,  183,  185,  537,  549,  551,  552,  641,  642,  643,  652
  657,  658,  659,  660, 1004, 1084, 1097, 1098, 1099, 1100, 1290
*Elset, elset=Set-3, generate
 665,  672,    1
*Nset, nset=Set-4
  135,  137,  141,  142,  175,  176,  179,  180,  527,  534,  536,  537,  631,  632,  633,  641
  642,  643,  644,  645,  991, 1076, 1084, 1085, 1086, 1087, 1287
*Elset, elset=Set-4, generate
 641,  648,    1
*Nset, nset=Set-5
  135,  136,  137,  138,  173,  174,  175,  176,  521,  524,  526,  527,  628,  629,  630,  631
  632,  633,  634,  635,  983, 1075, 1076, 1077, 1078, 1079, 1285
*Elset, elset=Set-5, generate
 625,  632,    1
*Nset, nset=Set-6
  127,  128,  146,  149,  166,  168,  184,  187,  505,  545,  559,  614,  617,  618,  653,  654
  663,  667,  668,  736, 1066, 1093, 1104, 1112, 1175, 1176, 1317
*Elset, elset=Set-6, generate
 881,  888,    1
*Nset, nset=Set-7
  128,  134,  145,  146,  166,  172,  183,  184,  543,  545,  547,  548,  614,  625,  651,  652
  653,  654,  655,  656, 1000, 1092, 1093, 1094, 1095, 1096, 1289
*Elset, elset=Set-7, generate
 657,  664,    1
*Nset, nset=Set-8
  132,  134,  141,  145,  170,  172,  179,  183,  518,  543,  549,  605,  622,  625,  626,  641
  651,  652,  660,  737, 1052, 1071, 1092, 1099, 1177, 1178, 1318
*Elset, elset=Set-8, generate
 889,  896,    1
*Nset, nset=Set-9
  132,  135,  140,  141,  170,  175,  178,  179,  531,  534,  605,  607,  622,  631,  638,  639
  641,  645,  737,  738, 1055, 1081, 1086, 1178, 1179, 1180, 1319
*Elset, elset=Set-9, generate
 897,  904,    1
*Nset, nset=Set-10
  135,  136,  140,  144,  173,  175,  178,  182,  521,  541,  607,  609,  628,  631,  635,  638
  648,  649,  738,  739, 1058, 1078, 1089, 1180, 1181, 1182, 1320
*Elset, elset=Set-10, generate
 905,  912,    1
*Nset, nset=Set-11
  127,  128,  129,  130,  165,  166,  167,  168,  505,  508,  510,  511,  612,  613,  614,  615
  616,  617,  618,  619,  973, 1064, 1065, 1066, 1067, 1068, 1282
*Elset, elset=Set-11, generate
 601,  608,    1
*Nset, nset=Set-12
  128,  130,  133,  134,  165,  166,  171,  172,  510,  516,  548,  596,  612,  613,  614,  623
  624,  625,  656,  735, 1044, 1064, 1070, 1095, 1173, 1174, 1316
*Elset, elset=Set-12, generate
 873,  880,    1
*Nset, nset=Set-13
  131,  132,  133,  134,  169,  170,  171,  172,  513,  516,  518,  519,  620,  621,  622,  623
  624,  625,  626,  627,  978, 1069, 1070, 1071, 1072, 1073, 1283
*Elset, elset=Set-13, generate
 609,  616,    1
*Nset, nset=Set-14
  131,  132,  139,  140,  169,  170,  177,  178,  513,  529,  531,  532,  620,  621,  622,  636
  637,  638,  639,  640,  987, 1069, 1080, 1081, 1082, 1083, 1286
*Elset, elset=Set-14, generate
 633,  640,    1
*Nset, nset=Set-15
  139,  140,  143,  144,  177,  178,  181,  182,  529,  539,  541,  542,  636,  637,  638,  646
  647,  648,  649,  650,  995, 1080, 1088, 1089, 1090, 1091, 1288
*Elset, elset=Set-15, generate
 649,  656,    1
*Nset, nset=Set-16
  129,  130,  159,  161,  165,  167,  197,  199,  508,  585,  586,  587,  612,  615,  619,  687
  690,  694,  695,  696, 1030, 1067, 1129, 1131, 1132, 1133, 1302
*Elset, elset=Set-16, generate
 761,  768,    1
*Nset, nset=Set-17
  130,  133,  157,  161,  165,  171,  196,  199,  586,  589,  592,  596,  612,  623,  684,  690
  695,  698,  701,  735, 1060, 1131, 1135, 1143, 1174, 1183, 1321
*Elset, elset=Set-17, generate
 913,  920,    1
*Nset, nset=Set-18
  131,  133,  155,  157,  169,  171,  194,  196,  519,  574,  588,  589,  620,  623,  627,  679
  684,  685,  697,  698, 1033, 1072, 1123, 1134, 1135, 1136, 1303
*Elset, elset=Set-18, generate
 769,  776,    1
*Nset, nset=Set-19
  131,  139,  152,  155,  169,  177,  190,  194,  532,  569,  588,  590,  620,  636,  640,  671
  679,  680,  697,  699, 1035, 1082, 1119, 1134, 1137, 1138, 1304
*Elset, elset=Set-19, generate
 777,  784,    1
*Nset, nset=Set-20
  139,  143,  152,  154,  177,  181,  190,  192,  542,  566,  590,  591,  636,  646,  650,  671
  674,  675,  699,  700, 1037, 1090, 1115, 1137, 1139, 1140, 1305
*Elset, elset=Set-20, generate
 785,  792,    1
*Nset, nset=Set-21
  159,  160,  161,  162,  197,  198,  199,  200,  579,  582,  584,  585,  687,  688,  689,  690
  691,  692,  693,  694, 1027, 1126, 1127, 1128, 1129, 1130, 1301
*Elset, elset=Set-21, generate
 753,  760,    1
*Nset, nset=Set-22
  157,  158,  161,  162,  195,  196,  199,  200,  577,  582,  592,  594,  682,  683,  684,  690
  691,  692,  701,  702, 1041, 1122, 1127, 1142, 1143, 1144, 1307
*Elset, elset=Set-22, generate
 801,  808,    1
*Nset, nset=Set-23
  155,  156,  157,  158,  193,  194,  195,  196,  572,  574,  576,  577,  677,  678,  679,  682
  683,  684,  685,  686, 1022, 1118, 1122, 1123, 1124, 1125, 1300
*Elset, elset=Set-23, generate
 745,  752,    1
*Nset, nset=Set-24
  151,  152,  155,  156,  189,  190,  193,  194,  561,  569,  571,  572,  669,  670,  671,  677
  678,  679,  680,  681, 1018, 1113, 1118, 1119, 1120, 1121, 1299
*Elset, elset=Set-24, generate
 737,  744,    1
*Nset, nset=Set-25
  151,  152,  153,  154,  189,  190,  191,  192,  561,  564,  566,  567,  669,  670,  671,  672
  673,  674,  675,  676, 1014, 1113, 1114, 1115, 1116, 1117, 1298
*Elset, elset=Set-25, generate
 729,  736,    1
*Nset, nset=Set-26
  105,  108,  109,  110,  146,  148,  149,  150,  449,  452,  453,  454,  546,  553,  554,  555
  556,  557,  558,  559,  919, 1005, 1006, 1007, 1008, 1009, 1265
*Elset, elset=Set-26, generate
 465,  472,    1
*Nset, nset=Set-27
  105,  106,  107,  110,  145,  146,  147,  148,  442,  447,  452,  544,  546,  547,  550,  552
  553,  554,  610,  611,  998, 1003, 1005, 1061, 1062, 1063, 1281
*Elset, elset=Set-27, generate
 593,  600,    1
*Nset, nset=Set-28
  101,  102,  106,  107,  141,  142,  145,  147,  432,  444,  446,  447,  533,  535,  537,  544
  549,  550,  551,  552,  914,  990, 1001, 1002, 1003, 1004, 1264
*Elset, elset=Set-28, generate
 457,  464,    1
*Nset, nset=Set-29
   96,   98,  101,  102,  135,  137,  141,  142,  421,  428,  430,  432,  520,  523,  527,  533
  534,  535,  536,  537,  901,  982,  988,  989,  990,  991, 1261
*Elset, elset=Set-29, generate
 433,  440,    1
*Nset, nset=Set-30
   95,   96,   97,   98,  135,  136,  137,  138,  416,  419,  421,  422,  520,  521,  522,  523
  524,  525,  526,  527,  893,  979,  980,  981,  982,  983, 1259
*Elset, elset=Set-30, generate
 417,  424,    1
*Nset, nset=Set-31
   87,   89,  105,  109,  127,  128,  146,  149,  406,  438,  453,  503,  504,  505,  506,  545
  546,  555,  559,  668,  968,  969,  997, 1008, 1111, 1112, 1296
*Elset, elset=Set-31, generate
 713,  720,    1
*Nset, nset=Set-32
   89,   93,  105,  106,  128,  134,  145,  146,  438,  440,  442,  443,  506,  517,  543,  544
  545,  546,  547,  548,  910,  996,  997,  998,  999, 1000, 1263
*Elset, elset=Set-32, generate
 449,  456,    1
*Nset, nset=Set-33
   93,   94,  102,  106,  132,  134,  141,  145,  411,  440,  446,  514,  517,  518,  533,  543
  544,  549,  604,  605,  976,  996, 1001, 1050, 1051, 1052, 1277
*Elset, elset=Set-33, generate
 561,  568,    1
*Nset, nset=Set-34
   94,   98,  100,  102,  132,  135,  140,  141,  426,  430,  514,  520,  530,  531,  533,  534
  604,  605,  606,  607,  985,  988, 1050, 1053, 1054, 1055, 1278
*Elset, elset=Set-34, generate
 569,  576,    1
*Nset, nset=Set-35
   97,   98,  100,  104,  135,  136,  140,  144,  419,  436,  520,  521,  522,  530,  540,  541
  606,  607,  608,  609,  979,  993, 1053, 1056, 1057, 1058, 1279
*Elset, elset=Set-35, generate
 577,  584,    1
*Nset, nset=Set-36
   87,   88,   89,   90,  127,  128,  129,  130,  400,  403,  405,  406,  504,  505,  506,  507
  508,  509,  510,  511,  883,  969,  970,  971,  972,  973, 1257
*Elset, elset=Set-36, generate
 401,  408,    1
*Nset, nset=Set-37
   89,   90,   91,   93,  128,  130,  133,  134,  403,  414,  443,  506,  509,  510,  515,  516
  517,  548,  596,  597,  971,  975,  999, 1042, 1043, 1044, 1275
*Elset, elset=Set-37, generate
 545,  552,    1
*Nset, nset=Set-38
   91,   92,   93,   94,  131,  132,  133,  134,  408,  411,  413,  414,  512,  513,  514,  515
  516,  517,  518,  519,  888,  974,  975,  976,  977,  978, 1258
*Elset, elset=Set-38, generate
 409,  416,    1
*Nset, nset=Set-39
   92,   94,   99,  100,  131,  132,  139,  140,  413,  424,  426,  427,  512,  513,  514,  528
  529,  530,  531,  532,  897,  974,  984,  985,  986,  987, 1260
*Elset, elset=Set-39, generate
 425,  432,    1
*Nset, nset=Set-40
   99,  100,  103,  104,  139,  140,  143,  144,  424,  434,  436,  437,  528,  529,  530,  538
  539,  540,  541,  542,  905,  984,  992,  993,  994,  995, 1262
*Elset, elset=Set-40, generate
 441,  448,    1
*Nset, nset=Set-41
   88,   90,  121,  122,  129,  130,  159,  161,  405,  477,  481,  482,  507,  508,  509,  578
  581,  585,  586,  587,  940,  970, 1026, 1028, 1029, 1030, 1270
*Elset, elset=Set-41, generate
 505,  512,    1
*Nset, nset=Set-42
   90,   91,  118,  122,  130,  133,  157,  161,  482,  484,  509,  515,  573,  581,  586,  589
  592,  593,  596,  597, 1028, 1032, 1038, 1042, 1059, 1060, 1280
*Elset, elset=Set-42, generate
 585,  592,    1
*Nset, nset=Set-43
   91,   92,  116,  118,  131,  133,  155,  157,  408,  471,  483,  484,  512,  515,  519,  568
  573,  574,  588,  589,  943,  977, 1019, 1031, 1032, 1033, 1271
*Elset, elset=Set-43, generate
 513,  520,    1
*Nset, nset=Set-44
   92,   99,  112,  116,  131,  139,  152,  155,  427,  466,  483,  485,  512,  528,  532,  562
  568,  569,  588,  590,  945,  986, 1015, 1031, 1034, 1035, 1272
*Elset, elset=Set-44, generate
 521,  528,    1
*Nset, nset=Set-45
   99,  103,  112,  114,  139,  143,  152,  154,  437,  461,  485,  486,  528,  538,  542,  562
  565,  566,  590,  591,  947,  994, 1012, 1034, 1036, 1037, 1273
*Elset, elset=Set-45, generate
 529,  536,    1
*Nset, nset=Set-46
  119,  120,  121,  122,  159,  160,  161,  162,  474,  477,  479,  480,  578,  579,  580,  581
  582,  583,  584,  585,  937, 1023, 1024, 1025, 1026, 1027, 1269
*Elset, elset=Set-46, generate
 497,  504,    1
*Nset, nset=Set-47
  117,  118,  120,  122,  157,  158,  161,  162,  472,  479,  573,  575,  577,  581,  582,  583
  592,  593,  594,  595, 1021, 1024, 1038, 1039, 1040, 1041, 1274
*Elset, elset=Set-47, generate
 537,  544,    1
*Nset, nset=Set-48
  115,  116,  117,  118,  155,  156,  157,  158,  467,  469,  471,  472,  568,  570,  572,  573
  574,  575,  576,  577,  932, 1017, 1019, 1020, 1021, 1022, 1268
*Elset, elset=Set-48, generate
 489,  496,    1
*Nset, nset=Set-49
  111,  112,  115,  116,  151,  152,  155,  156,  456,  464,  466,  467,  560,  561,  562,  568
  569,  570,  571,  572,  928, 1010, 1015, 1016, 1017, 1018, 1267
*Elset, elset=Set-49, generate
 481,  488,    1
*Nset, nset=Set-50
  111,  112,  113,  114,  151,  152,  153,  154,  456,  459,  461,  462,  560,  561,  562,  563
  564,  565,  566,  567,  924, 1010, 1011, 1012, 1013, 1014, 1266
*Elset, elset=Set-50, generate
 473,  480,    1
*Nset, nset=Set-51
   38,   45,   46,   48,  105,  108,  109,  110,  296,  300,  301,  303,  439,  448,  449,  450
  451,  452,  453,  454,  806,  915,  916,  917,  918,  919, 1240
*Elset, elset=Set-51, generate
 265,  272,    1
*Nset, nset=Set-52
   38,   40,   42,   48,  105,  106,  107,  110,  283,  292,  300,  359,  439,  441,  442,  445
  447,  451,  452,  611,  848,  908,  913,  916, 1062, 1074, 1284
*Elset, elset=Set-52, generate
 617,  624,    1
*Nset, nset=Set-53
   30,   31,   40,   42,  101,  102,  106,  107,  267,  288,  291,  292,  429,  431,  432,  441
  444,  445,  446,  447,  800,  900,  911,  912,  913,  914, 1239
*Elset, elset=Set-53, generate
 257,  264,    1
*Nset, nset=Set-54
   20,   23,   30,   31,   96,   98,  101,  102,  249,  262,  265,  267,  417,  420,  421,  428
  429,  430,  431,  432,  784,  891,  898,  899,  900,  901, 1236
*Elset, elset=Set-54, generate
 233,  240,    1
*Nset, nset=Set-55
   19,   20,   22,   23,   95,   96,   97,   98,  243,  247,  249,  251,  415,  416,  417,  418
  419,  420,  421,  422,  774,  889,  890,  891,  892,  893, 1234
*Elset, elset=Set-55, generate
 217,  224,    1
*Nset, nset=Set-56
    3,    6,   38,   46,   87,   89,  105,  109,  227,  278,  301,  358,  399,  402,  406,  438
  439,  450,  453,  503,  845,  882,  906,  917,  967,  968, 1256
*Elset, elset=Set-56, generate
 393,  400,    1
*Nset, nset=Set-57
    6,   15,   38,   40,   89,   93,  105,  106,  278,  281,  283,  285,  402,  410,  438,  439
  440,  441,  442,  443,  795,  906,  907,  908,  909,  910, 1238
*Elset, elset=Set-57, generate
 249,  256,    1
*Nset, nset=Set-58
   15,   16,   31,   40,   93,   94,  102,  106,  235,  281,  291,  387,  410,  411,  412,  431
  440,  441,  446,  604,  868,  885,  907,  912, 1051, 1110, 1295
*Elset, elset=Set-58, generate
 705,  712,    1
*Nset, nset=Set-59
   16,   23,   28,   31,   94,   98,  100,  102,  257,  265,  387,  412,  420,  425,  426,  430
  431,  494,  604,  606,  895,  899,  958, 1054, 1108, 1110, 1294
*Elset, elset=Set-59, generate
 697,  704,    1
*Nset, nset=Set-60
   22,   23,   28,   36,   97,   98,  100,  104,  247,  273,  418,  419,  420,  425,  435,  436
  494,  495,  606,  608,  890,  903,  960, 1057, 1108, 1109, 1293
*Elset, elset=Set-60, generate
 689,  696,    1
*Nset, nset=Set-61
    3,    4,    6,    7,   87,   88,   89,   90,  219,  223,  225,  227,  399,  400,  401,  402
  403,  404,  405,  406,  762,  879,  880,  881,  882,  883, 1232
*Elset, elset=Set-61, generate
 201,  208,    1
*Nset, nset=Set-62
    6,    7,   11,   15,   89,   90,   91,   93,  223,  239,  285,  402,  403,  404,  407,  410
  414,  443,  489,  597,  880,  887,  909,  952, 1043, 1106, 1297
*Elset, elset=Set-62, generate
 721,  728,    1
*Nset, nset=Set-63
   11,   12,   15,   16,   91,   92,   93,   94,  231,  235,  237,  239,  407,  408,  409,  410
  411,  412,  413,  414,  768,  884,  885,  886,  887,  888, 1233
*Elset, elset=Set-63, generate
 209,  216,    1
*Nset, nset=Set-64
   12,   16,   27,   28,   92,   94,   99,  100,  237,  255,  257,  259,  409,  412,  413,  423
  424,  425,  426,  427,  779,  886,  894,  895,  896,  897, 1235
*Elset, elset=Set-64, generate
 225,  232,    1
*Nset, nset=Set-65
   27,   28,   35,   36,   99,  100,  103,  104,  255,  271,  273,  275,  423,  424,  425,  433
  434,  435,  436,  437,  789,  894,  902,  903,  904,  905, 1237
*Elset, elset=Set-65, generate
 241,  248,    1
*Nset, nset=Set-66
    4,    7,   71,   72,   88,   90,  121,  122,  225,  339,  346,  348,  401,  404,  405,  476
  477,  478,  481,  482,  832,  881,  934,  938,  939,  940, 1245
*Elset, elset=Set-66, generate
 305,  312,    1
*Nset, nset=Set-67
    7,   11,   64,   72,   90,   91,  118,  122,  348,  351,  404,  407,  470,  478,  482,  484
  487,  489,  593,  597,  939,  942,  961, 1059, 1106, 1107, 1292
*Elset, elset=Set-67, generate
 681,  688,    1
*Nset, nset=Set-68
   11,   12,   60,   64,   91,   92,  116,  118,  231,  330,  349,  351,  407,  408,  409,  465
  470,  471,  483,  484,  836,  884,  930,  941,  942,  943, 1246
*Elset, elset=Set-68, generate
 313,  320,    1
*Nset, nset=Set-69
   12,   27,   52,   60,   92,   99,  112,  116,  259,  322,  349,  353,  409,  423,  427,  457
  465,  466,  483,  485,  839,  896,  926,  941,  944,  945, 1247
*Elset, elset=Set-69, generate
 321,  328,    1
*Nset, nset=Set-70
   27,   35,   52,   56,   99,  103,  112,  114,  275,  313,  353,  356,  423,  433,  437,  457
  460,  461,  485,  486,  842,  904,  922,  944,  946,  947, 1248
*Elset, elset=Set-70, generate
 329,  336,    1
*Nset, nset=Set-71
   67,   68,   71,   72,  119,  120,  121,  122,  335,  339,  341,  343,  473,  474,  475,  476
  477,  478,  479,  480,  828,  933,  934,  935,  936,  937, 1244
*Elset, elset=Set-71, generate
 297,  304,    1
*Nset, nset=Set-72
   62,   64,   68,   72,  117,  118,  120,  122,  331,  341,  468,  470,  472,  475,  478,  479
  487,  488,  593,  595,  931,  935,  950, 1040, 1107, 1141, 1306
*Elset, elset=Set-72, generate
 793,  800,    1
*Nset, nset=Set-73
   58,   60,   62,   64,  115,  116,  117,  118,  323,  327,  330,  331,  463,  465,  467,  468
  469,  470,  471,  472,  822,  927,  929,  930,  931,  932, 1243
*Elset, elset=Set-73, generate
 289,  296,    1
*Nset, nset=Set-74
   51,   52,   58,   60,  111,  112,  115,  116,  307,  319,  322,  323,  455,  456,  457,  463
  464,  465,  466,  467,  817,  920,  925,  926,  927,  928, 1242
*Elset, elset=Set-74, generate
 281,  288,    1
*Nset, nset=Set-75
   51,   52,   55,   56,  111,  112,  113,  114,  307,  311,  313,  315,  455,  456,  457,  458
  459,  460,  461,  462,  812,  920,  921,  922,  923,  924, 1241
*Elset, elset=Set-75, generate
 273,  280,    1
*Nset, nset=Set-76
   37,   38,   43,   44,   45,   46,   47,   48,  279,  294,  295,  296,  297,  298,  299,  300
  301,  302,  303,  304,  801,  802,  803,  804,  805,  806, 1215
*Elset, elset=Set-76, generate
 65,  72,   1
*Nset, nset=Set-77
   37,   38,   39,   40,   41,   42,   47,   48,  279,  282,  283,  284,  289,  292,  293,  298
  299,  300,  359,  360,  792,  798,  802,  846,  847,  848, 1225
*Elset, elset=Set-77, generate
 145,  152,    1
*Nset, nset=Set-78
   29,   30,   31,   32,   39,   40,   41,   42,  263,  266,  267,  268,  282,  287,  288,  289
  290,  291,  292,  293,  782,  796,  797,  798,  799,  800, 1214
*Elset, elset=Set-78, generate
 57,  64,   1
*Nset, nset=Set-79
   17,   20,   23,   24,   29,   30,   31,   32,  244,  248,  249,  250,  261,  262,  263,  264
  265,  266,  267,  268,  771,  780,  781,  782,  783,  784, 1211
*Elset, elset=Set-79, generate
 33,  40,   1
*Nset, nset=Set-80
   17,   18,   19,   20,   21,   22,   23,   24,  241,  242,  243,  244,  245,  246,  247,  248
  249,  250,  251,  252,  769,  770,  771,  772,  773,  774, 1209
*Elset, elset=Set-80, generate
 17,  24,   1
*Nset, nset=Set-81
    2,    3,    5,    6,   37,   38,   43,   46,  218,  222,  227,  228,  277,  278,  279,  297
  301,  302,  357,  358,  760,  790,  803,  843,  844,  845, 1224
*Elset, elset=Set-81, generate
 137,  144,    1
*Nset, nset=Set-82
    5,    6,   14,   15,   37,   38,   39,   40,  222,  234,  277,  278,  279,  280,  281,  282
  283,  284,  285,  286,  790,  791,  792,  793,  794,  795, 1213
*Elset, elset=Set-82, generate
 49,  56,   1
*Nset, nset=Set-83
   13,   14,   15,   16,   31,   32,   39,   40,  233,  234,  235,  236,  266,  280,  281,  282
  290,  291,  381,  387,  764,  791,  797,  866,  867,  868, 1229
*Elset, elset=Set-83, generate
 177,  184,    1
*Nset, nset=Set-84
   13,   16,   23,   24,   25,   28,   31,   32,  236,  248,  256,  257,  258,  264,  265,  266
  371,  381,  387,  494,  776,  781,  864,  866,  957,  958, 1252
*Elset, elset=Set-84, generate
 361,  368,    1
*Nset, nset=Set-85
   21,   22,   23,   24,   25,   28,   33,   36,  245,  246,  247,  248,  256,  272,  273,  274
  371,  375,  494,  495,  770,  786,  859,  957,  959,  960, 1253
*Elset, elset=Set-85, generate
 369,  376,    1
*Nset, nset=Set-86
    1,    2,    3,    4,    5,    6,    7,    8,  217,  218,  219,  220,  221,  222,  223,  224
  225,  226,  227,  228,  757,  758,  759,  760,  761,  762, 1207
*Elset, elset=Set-86, generate
 1,  8,  1
*Nset, nset=Set-87
    5,    6,    7,    8,   10,   11,   14,   15,  221,  222,  223,  224,  230,  234,  239,  240
  285,  286,  370,  489,  758,  766,  793,  872,  951,  952, 1250
*Elset, elset=Set-87, generate
 345,  352,    1
*Nset, nset=Set-88
    9,   10,   11,   12,   13,   14,   15,   16,  229,  230,  231,  232,  233,  234,  235,  236
  237,  238,  239,  240,  763,  764,  765,  766,  767,  768, 1208
*Elset, elset=Set-88, generate
  9,  16,   1
*Nset, nset=Set-89
    9,   12,   13,   16,   25,   26,   27,   28,  232,  236,  237,  238,  253,  254,  255,  256
  257,  258,  259,  260,  765,  775,  776,  777,  778,  779, 1210
*Elset, elset=Set-89, generate
 25,  32,   1
*Nset, nset=Set-90
   25,   26,   27,   28,   33,   34,   35,   36,  253,  254,  255,  256,  269,  270,  271,  272
  273,  274,  275,  276,  775,  785,  786,  787,  788,  789, 1212
*Elset, elset=Set-90, generate
 41,  48,   1
*Nset, nset=Set-91
    1,    4,    7,    8,   69,   70,   71,   72,  220,  224,  225,  226,  337,  338,  339,  340
  345,  346,  347,  348,  759,  824,  829,  830,  831,  832, 1220
*Elset, elset=Set-91, generate
 105,  112,    1
*Nset, nset=Set-92
    7,    8,   10,   11,   63,   64,   69,   72,  224,  230,  329,  340,  347,  348,  351,  352
  368,  370,  487,  489,  830,  834,  853,  948,  951,  961, 1254
*Elset, elset=Set-92, generate
 377,  384,    1
*Nset, nset=Set-93
    9,   10,   11,   12,   59,   60,   63,   64,  229,  230,  231,  232,  321,  328,  329,  330
  349,  350,  351,  352,  763,  819,  833,  834,  835,  836, 1221
*Elset, elset=Set-93, generate
 113,  120,    1
*Nset, nset=Set-94
    9,   12,   26,   27,   49,   52,   59,   60,  232,  254,  259,  260,  308,  320,  321,  322
  349,  350,  353,  354,  777,  814,  833,  837,  838,  839, 1222
*Elset, elset=Set-94, generate
 121,  128,    1
*Nset, nset=Set-95
   26,   27,   34,   35,   49,   52,   53,   56,  254,  270,  275,  276,  308,  312,  313,  314
  353,  354,  355,  356,  787,  809,  837,  840,  841,  842, 1223
*Elset, elset=Set-95, generate
 129,  136,    1
*Nset, nset=Set-96
   65,   66,   67,   68,   69,   70,   71,   72,  333,  334,  335,  336,  337,  338,  339,  340
  341,  342,  343,  344,  823,  824,  825,  826,  827,  828, 1219
*Elset, elset=Set-96, generate
  97,  104,    1
*Nset, nset=Set-97
   61,   62,   63,   64,   65,   68,   69,   72,  326,  329,  331,  332,  336,  340,  341,  342
  368,  398,  487,  488,  820,  825,  877,  948,  949,  950, 1249
*Elset, elset=Set-97, generate
 337,  344,    1
*Nset, nset=Set-98
   57,   58,   59,   60,   61,   62,   63,   64,  318,  321,  323,  324,  325,  326,  327,  328
  329,  330,  331,  332,  815,  818,  819,  820,  821,  822, 1218
*Elset, elset=Set-98, generate
 89,  96,   1
*Nset, nset=Set-99
   49,   50,   51,   52,   57,   58,   59,   60,  305,  306,  307,  308,  317,  318,  319,  320
  321,  322,  323,  324,  807,  813,  814,  815,  816,  817, 1217
*Elset, elset=Set-99, generate
 81,  88,   1
*Nset, nset=Set-100
   49,   50,   51,   52,   53,   54,   55,   56,  305,  306,  307,  308,  309,  310,  311,  312
  313,  314,  315,  316,  807,  808,  809,  810,  811,  812, 1216
*Elset, elset=Set-100, generate
 73,  80,   1
*Nset, nset=Set-101
   37,   43,   44,   47,  124,  125,  164,  213,  294,  298,  302,  304,  496,  497,  498,  600
  602,  740,  741,  742,  805,  962, 1047, 1184, 1185, 1186, 1322
*Elset, elset=Set-101, generate
 921,  928,    1
*Nset, nset=Set-102
   37,   39,   41,   47,  123,  124,  125,  126,  284,  293,  298,  360,  490,  496,  497,  498
  499,  500,  501,  502,  847,  962,  963,  964,  965,  966, 1255
*Elset, elset=Set-102, generate
 385,  392,    1
*Nset, nset=Set-103
   29,   32,   39,   41,   81,  123,  126,  214,  268,  287,  290,  293,  382,  490,  493,  499
  500,  743,  744,  745,  799,  955,  963, 1187, 1188, 1189, 1323
*Elset, elset=Set-103, generate
 929,  936,    1
*Nset, nset=Set-104
   17,   24,   29,   32,   77,   81,  214,  215,  250,  261,  264,  268,  372,  382,  386,  743
  745,  748,  749,  750,  783,  863, 1188, 1194, 1195, 1196, 1326
*Elset, elset=Set-104, generate
 953,  960,    1
*Nset, nset=Set-105
   17,   18,   21,   24,   77,   79,  215,  216,  241,  245,  250,  252,  372,  376,  380,  748
  750,  752,  753,  754,  773,  858, 1195, 1199, 1200, 1201, 1328
*Elset, elset=Set-105, generate
 969,  976,    1
*Nset, nset=Set-106
    2,    5,   37,   43,   83,  125,  163,  164,  228,  277,  302,  357,  388,  498,  598,  599
  600,  601,  602,  603,  844, 1045, 1046, 1047, 1048, 1049, 1276
*Elset, elset=Set-106, generate
 553,  560,    1
*Nset, nset=Set-107
    5,   14,   37,   39,   83,   84,  123,  125,  277,  280,  284,  286,  388,  390,  392,  490
  491,  498,  501,  601,  794,  871,  953,  964, 1046, 1190, 1324
*Elset, elset=Set-107, generate
 937,  944,    1
*Nset, nset=Set-108
   13,   14,   32,   39,   81,   82,   84,  123,  233,  280,  290,  381,  382,  383,  384,  390
  490,  491,  492,  493,  861,  867,  953,  954,  955,  956, 1251
*Elset, elset=Set-108, generate
 353,  360,    1
*Nset, nset=Set-109
   13,   24,   25,   32,   77,   78,   81,   82,  258,  264,  371,  372,  373,  374,  381,  382
  383,  384,  385,  386,  855,  861,  862,  863,  864,  865, 1228
*Elset, elset=Set-109, generate
 169,  176,    1
*Nset, nset=Set-110
   21,   24,   25,   33,   77,   78,   79,   80,  245,  274,  371,  372,  373,  374,  375,  376
  377,  378,  379,  380,  855,  856,  857,  858,  859,  860, 1227
*Elset, elset=Set-110, generate
 161,  168,    1
*Nset, nset=Set-111
    1,    2,    5,    8,   73,   83,  163,  208,  217,  221,  226,  228,  361,  388,  389,  598
  603,  719,  721,  756,  761,  869, 1048, 1160, 1205, 1206, 1331
*Elset, elset=Set-111, generate
  993,  1000,     1
*Nset, nset=Set-112
    5,    8,   10,   14,   73,   75,   83,   84,  221,  240,  286,  361,  364,  369,  370,  388
  389,  390,  391,  392,  852,  869,  870,  871,  872,  873, 1230
*Elset, elset=Set-112, generate
 185,  192,    1
*Nset, nset=Set-113
    9,   10,   13,   14,   75,   82,   84,  206,  229,  233,  238,  240,  364,  384,  390,  391
  492,  714,  717,  751,  767,  870,  954, 1156, 1198, 1204, 1330
*Elset, elset=Set-113, generate
 985,  992,    1
*Nset, nset=Set-114
    9,   13,   25,   26,   78,   82,  204,  206,  238,  253,  258,  260,  374,  384,  385,  707
  712,  714,  747,  751,  778,  862, 1153, 1192, 1197, 1198, 1327
*Elset, elset=Set-114, generate
 961,  968,    1
*Nset, nset=Set-115
   25,   26,   33,   34,   78,   80,  203,  204,  253,  269,  274,  276,  374,  378,  379,  705
  707,  709,  746,  747,  788,  857, 1149, 1191, 1192, 1193, 1325
*Elset, elset=Set-115, generate
 945,  952,    1
*Nset, nset=Set-116
    1,    8,   69,   70,   73,   74,  207,  208,  226,  337,  345,  347,  361,  362,  363,  718
  719,  720,  721,  722,  831,  849, 1157, 1158, 1159, 1160, 1311
*Elset, elset=Set-116, generate
 833,  840,    1
*Nset, nset=Set-117
    8,   10,   63,   69,   73,   74,   75,   76,  347,  352,  361,  362,  363,  364,  365,  366
  367,  368,  369,  370,  849,  850,  851,  852,  853,  854, 1226
*Elset, elset=Set-117, generate
 153,  160,    1
*Nset, nset=Set-118
    9,   10,   59,   63,   75,   76,  205,  206,  229,  328,  350,  352,  364,  365,  366,  713
  714,  715,  716,  717,  835,  850, 1151, 1154, 1155, 1156, 1310
*Elset, elset=Set-118, generate
 825,  832,    1
*Nset, nset=Set-119
    9,   26,   49,   59,  201,  204,  205,  206,  260,  320,  350,  354,  706,  707,  708,  711
  712,  713,  714,  715,  838, 1146, 1150, 1151, 1152, 1153, 1309
*Elset, elset=Set-119, generate
 817,  824,    1
*Nset, nset=Set-120
   26,   34,   49,   53,  201,  202,  203,  204,  276,  314,  354,  355,  703,  704,  705,  706
  707,  708,  709,  710,  841, 1145, 1146, 1147, 1148, 1149, 1308
*Elset, elset=Set-120, generate
 809,  816,    1
*Nset, nset=Set-121
   65,   66,   69,   70,   74,   86,  207,  209,  333,  337,  342,  344,  363,  395,  396,  718
  722,  723,  724,  725,  827,  875, 1159, 1161, 1162, 1163, 1312
*Elset, elset=Set-121, generate
 841,  848,    1
*Nset, nset=Set-122
   61,   63,   65,   69,   74,   76,   85,   86,  332,  342,  363,  366,  367,  368,  393,  394
  395,  396,  397,  398,  851,  874,  875,  876,  877,  878, 1231
*Elset, elset=Set-122, generate
 193,  200,    1
*Nset, nset=Set-123
   57,   59,   61,   63,   76,   85,  205,  210,  324,  325,  328,  332,  366,  393,  394,  715
  716,  726,  727,  728,  821,  874, 1155, 1164, 1165, 1166, 1313
*Elset, elset=Set-123, generate
 849,  856,    1
*Nset, nset=Set-124
   49,   50,   57,   59,  201,  205,  210,  211,  305,  317,  320,  324,  708,  711,  715,  727
  728,  729,  730,  731,  816, 1152, 1165, 1167, 1168, 1169, 1314
*Elset, elset=Set-124, generate
 857,  864,    1
*Nset, nset=Set-125
   49,   50,   53,   54,  201,  202,  211,  212,  305,  309,  314,  316,  703,  708,  710,  730
  731,  732,  733,  734,  811, 1148, 1168, 1170, 1171, 1172, 1315
*Elset, elset=Set-125, generate
 865,  872,    1
** Section: Section-86
*Solid Section, elset=Set-86, material=Material-86
,
** Section: Section-88
*Solid Section, elset=Set-88, material=Material-88
,
** Section: Section-80
*Solid Section, elset=Set-80, material=Material-80
,
** Section: Section-89
*Solid Section, elset=Set-89, material=Material-89
,
** Section: Section-79
*Solid Section, elset=Set-79, material=Material-79
,
** Section: Section-90
*Solid Section, elset=Set-90, material=Material-90
,
** Section: Section-82
*Solid Section, elset=Set-82, material=Material-82
,
** Section: Section-78
*Solid Section, elset=Set-78, material=Material-78
,
** Section: Section-76
*Solid Section, elset=Set-76, material=Material-76
,
** Section: Section-100
*Solid Section, elset=Set-100, material=Material-100
,
** Section: Section-99
*Solid Section, elset=Set-99, material=Material-99
,
** Section: Section-98
*Solid Section, elset=Set-98, material=Material-98
,
** Section: Section-96
*Solid Section, elset=Set-96, material=Material-96
,
** Section: Section-91
*Solid Section, elset=Set-91, material=Material-91
,
** Section: Section-93
*Solid Section, elset=Set-93, material=Material-93
,
** Section: Section-94
*Solid Section, elset=Set-94, material=Material-94
,
** Section: Section-95
*Solid Section, elset=Set-95, material=Material-95
,
** Section: Section-81
*Solid Section, elset=Set-81, material=Material-81
,
** Section: Section-77
*Solid Section, elset=Set-77, material=Material-77
,
** Section: Section-117
*Solid Section, elset=Set-117, material=Material-117
,
** Section: Section-110
*Solid Section, elset=Set-110, material=Material-110
,
** Section: Section-109
*Solid Section, elset=Set-109, material=Material-109
,
** Section: Section-83
*Solid Section, elset=Set-83, material=Material-83
,
** Section: Section-112
*Solid Section, elset=Set-112, material=Material-112
,
** Section: Section-122
*Solid Section, elset=Set-122, material=Material-122
,
** Section: Section-61
*Solid Section, elset=Set-61, material=Material-61
,
** Section: Section-63
*Solid Section, elset=Set-63, material=Material-63
,
** Section: Section-55
*Solid Section, elset=Set-55, material=Material-55
,
** Section: Section-64
*Solid Section, elset=Set-64, material=Material-64
,
** Section: Section-54
*Solid Section, elset=Set-54, material=Material-54
,
** Section: Section-65
*Solid Section, elset=Set-65, material=Material-65
,
** Section: Section-57
*Solid Section, elset=Set-57, material=Material-57
,
** Section: Section-53
*Solid Section, elset=Set-53, material=Material-53
,
** Section: Section-51
*Solid Section, elset=Set-51, material=Material-51
,
** Section: Section-75
*Solid Section, elset=Set-75, material=Material-75
,
** Section: Section-74
*Solid Section, elset=Set-74, material=Material-74
,
** Section: Section-73
*Solid Section, elset=Set-73, material=Material-73
,
** Section: Section-71
*Solid Section, elset=Set-71, material=Material-71
,
** Section: Section-66
*Solid Section, elset=Set-66, material=Material-66
,
** Section: Section-68
*Solid Section, elset=Set-68, material=Material-68
,
** Section: Section-69
*Solid Section, elset=Set-69, material=Material-69
,
** Section: Section-70
*Solid Section, elset=Set-70, material=Material-70
,
** Section: Section-97
*Solid Section, elset=Set-97, material=Material-97
,
** Section: Section-87
*Solid Section, elset=Set-87, material=Material-87
,
** Section: Section-108
*Solid Section, elset=Set-108, material=Material-108
,
** Section: Section-84
*Solid Section, elset=Set-84, material=Material-84
,
** Section: Section-85
*Solid Section, elset=Set-85, material=Material-85
,
** Section: Section-92
*Solid Section, elset=Set-92, material=Material-92
,
** Section: Section-102
*Solid Section, elset=Set-102, material=Material-102
,
** Section: Section-56
*Solid Section, elset=Set-56, material=Material-56
,
** Section: Section-36
*Solid Section, elset=Set-36, material=Material-36
,
** Section: Section-38
*Solid Section, elset=Set-38, material=Material-38
,
** Section: Section-30
*Solid Section, elset=Set-30, material=Material-30
,
** Section: Section-39
*Solid Section, elset=Set-39, material=Material-39
,
** Section: Section-29
*Solid Section, elset=Set-29, material=Material-29
,
** Section: Section-40
*Solid Section, elset=Set-40, material=Material-40
,
** Section: Section-32
*Solid Section, elset=Set-32, material=Material-32
,
** Section: Section-28
*Solid Section, elset=Set-28, material=Material-28
,
** Section: Section-26
*Solid Section, elset=Set-26, material=Material-26
,
** Section: Section-50
*Solid Section, elset=Set-50, material=Material-50
,
** Section: Section-49
*Solid Section, elset=Set-49, material=Material-49
,
** Section: Section-48
*Solid Section, elset=Set-48, material=Material-48
,
** Section: Section-46
*Solid Section, elset=Set-46, material=Material-46
,
** Section: Section-41
*Solid Section, elset=Set-41, material=Material-41
,
** Section: Section-43
*Solid Section, elset=Set-43, material=Material-43
,
** Section: Section-44
*Solid Section, elset=Set-44, material=Material-44
,
** Section: Section-45
*Solid Section, elset=Set-45, material=Material-45
,
** Section: Section-47
*Solid Section, elset=Set-47, material=Material-47
,
** Section: Section-37
*Solid Section, elset=Set-37, material=Material-37
,
** Section: Section-106
*Solid Section, elset=Set-106, material=Material-106
,
** Section: Section-33
*Solid Section, elset=Set-33, material=Material-33
,
** Section: Section-34
*Solid Section, elset=Set-34, material=Material-34
,
** Section: Section-35
*Solid Section, elset=Set-35, material=Material-35
,
** Section: Section-42
*Solid Section, elset=Set-42, material=Material-42
,
** Section: Section-27
*Solid Section, elset=Set-27, material=Material-27
,
** Section: Section-11
*Solid Section, elset=Set-11, material=Material-11
,
** Section: Section-13
*Solid Section, elset=Set-13, material=Material-13
,
** Section: Section-52
*Solid Section, elset=Set-52, material=Material-52
,
** Section: Section-5
*Solid Section, elset=Set-5, material=Material-5
,
** Section: Section-14
*Solid Section, elset=Set-14, material=Material-14
,
** Section: Section-4
*Solid Section, elset=Set-4, material=Material-4
,
** Section: Section-15
*Solid Section, elset=Set-15, material=Material-15
,
** Section: Section-7
*Solid Section, elset=Set-7, material=Material-7
,
** Section: Section-3
*Solid Section, elset=Set-3, material=Material-3
,
** Section: Section-1
*Solid Section, elset=Set-1, material=Material-1
,
** Section: Section-67
*Solid Section, elset=Set-67, material=Material-67
,
** Section: Section-60
*Solid Section, elset=Set-60, material=Material-60
,
** Section: Section-59
*Solid Section, elset=Set-59, material=Material-59
,
** Section: Section-58
*Solid Section, elset=Set-58, material=Material-58
,
** Section: Section-31
*Solid Section, elset=Set-31, material=Material-31
,
** Section: Section-62
*Solid Section, elset=Set-62, material=Material-62
,
** Section: Section-25
*Solid Section, elset=Set-25, material=Material-25
,
** Section: Section-24
*Solid Section, elset=Set-24, material=Material-24
,
** Section: Section-23
*Solid Section, elset=Set-23, material=Material-23
,
** Section: Section-21
*Solid Section, elset=Set-21, material=Material-21
,
** Section: Section-16
*Solid Section, elset=Set-16, material=Material-16
,
** Section: Section-18
*Solid Section, elset=Set-18, material=Material-18
,
** Section: Section-19
*Solid Section, elset=Set-19, material=Material-19
,
** Section: Section-20
*Solid Section, elset=Set-20, material=Material-20
,
** Section: Section-72
*Solid Section, elset=Set-72, material=Material-72
,
** Section: Section-22
*Solid Section, elset=Set-22, material=Material-22
,
** Section: Section-120
*Solid Section, elset=Set-120, material=Material-120
,
** Section: Section-119
*Solid Section, elset=Set-119, material=Material-119
,
** Section: Section-118
*Solid Section, elset=Set-118, material=Material-118
,
** Section: Section-116
*Solid Section, elset=Set-116, material=Material-116
,
** Section: Section-121
*Solid Section, elset=Set-121, material=Material-121
,
** Section: Section-123
*Solid Section, elset=Set-123, material=Material-123
,
** Section: Section-124
*Solid Section, elset=Set-124, material=Material-124
,
** Section: Section-125
*Solid Section, elset=Set-125, material=Material-125
,
** Section: Section-12
*Solid Section, elset=Set-12, material=Material-12
,
** Section: Section-6
*Solid Section, elset=Set-6, material=Material-6
,
** Section: Section-8
*Solid Section, elset=Set-8, material=Material-8
,
** Section: Section-9
*Solid Section, elset=Set-9, material=Material-9
,
** Section: Section-10
*Solid Section, elset=Set-10, material=Material-10
,
** Section: Section-17
*Solid Section, elset=Set-17, material=Material-17
,
** Section: Section-101
*Solid Section, elset=Set-101, material=Material-101
,
** Section: Section-103
*Solid Section, elset=Set-103, material=Material-103
,
** Section: Section-107
*Solid Section, elset=Set-107, material=Material-107
,
** Section: Section-115
*Solid Section, elset=Set-115, material=Material-115
,
** Section: Section-104
*Solid Section, elset=Set-104, material=Material-104
,
** Section: Section-114
*Solid Section, elset=Set-114, material=Material-114
,
** Section: Section-105
*Solid Section, elset=Set-105, material=Material-105
,
** Section: Section-2
*Solid Section, elset=Set-2, material=Material-2
,
** Section: Section-113
*Solid Section, elset=Set-113, material=Material-113
,
** Section: Section-111
*Solid Section, elset=Set-111, material=Material-111
,
*End Instance
**  
*Include, input=VerticeSets.inp
*End Assembly
** 
** MATERIALS
** 
*Material, name=Material-1
*Depvar
    200,
*User Material, constants=4
4.,0.,1.,2.
*Material, name=Material-2
*Depvar
    200,
*User Material, constants=4
4.,0.,1.,2.
*Material, name=Material-3
*Depvar
    200,
*User Material, constants=4
4.,0.,1.,2.
*Material, name=Material-4
*Depvar
    200,
*User Material, constants=4
4.,0.,1.,2.
*Material, name=Material-5
*Depvar
    200,
*User Material, constants=4
4.,0.,1.,2.
*Material, name=Material-6
*Depvar
    200,
*User Material, constants=4
4.,0.,1.,2.
*Material, name=Material-7
*Depvar
    200,
*User Material, constants=4
4.,0.,1.,2.
*Material, name=Material-8
*Depvar
    200,
*User Material, constants=4
4.,0.,1.,2.
*Material, name=Material-9
*Depvar
    200,
*User Material, constants=4
4.,0.,1.,2.
*Material, name=Material-10
*Depvar
    200,
*User Material, constants=4
4.,0.,1.,2.
*Material, name=Material-11
*Depvar
    200,
*User Material, constants=4
4.,0.,1.,2.
*Material, name=Material-12
*Depvar
    200,
*User Material, constants=4
4.,0.,1.,2.
*Material, name=Material-13
*Depvar
    200,
*User Material, constants=4
4.,0.,1.,2.
*Material, name=Material-14
*Depvar
    200,
*User Material, constants=4
4.,0.,1.,2.
*Material, name=Material-15
*Depvar
    200,
*User Material, constants=4
4.,0.,1.,2.
*Material, name=Material-16
*Depvar
    200,
*User Material, constants=4
4.,0.,1.,2.
*Material, name=Material-17
*Depvar
    200,
*User Material, constants=4
4.,0.,1.,2.
*Material, name=Material-18
*Depvar
    200,
*User Material, constants=4
4.,0.,1.,2.
*Material, name=Material-19
*Depvar
    200,
*User Material, constants=4
4.,0.,1.,2.
*Material, name=Material-20
*Depvar
    200,
*User Material, constants=4
4.,0.,1.,2.
*Material, name=Material-21
*Depvar
    200,
*User Material, constants=4
4.,0.,1.,2.
*Material, name=Material-22
*Depvar
    200,
*User Material, constants=4
4.,0.,1.,2.
*Material, name=Material-23
*Depvar
    200,
*User Material, constants=4
4.,0.,1.,2.
*Material, name=Material-24
*Depvar
    200,
*User Material, constants=4
4.,0.,1.,2.
*Material, name=Material-25
*Depvar
    200,
*User Material, constants=4
4.,0.,1.,2.
*Material, name=Material-26
*Depvar
    200,
*User Material, constants=4
4.,0.,1.,2.
*Material, name=Material-27
*Depvar
    200,
*User Material, constants=4
4.,0.,1.,2.
*Material, name=Material-28
*Depvar
    200,
*User Material, constants=4
4.,0.,1.,2.
*Material, name=Material-29
*Depvar
    200,
*User Material, constants=4
4.,0.,1.,2.
*Material, name=Material-30
*Depvar
    200,
*User Material, constants=4
4.,0.,1.,2.
*Material, name=Material-31
*Depvar
    200,
*User Material, constants=4
4.,0.,1.,2.
*Material, name=Material-32
*Depvar
    200,
*User Material, constants=4
4.,0.,1.,2.
*Material, name=Material-33
*Depvar
    200,
*User Material, constants=4
4.,0.,1.,2.
*Material, name=Material-34
*Depvar
    200,
*User Material, constants=4
4.,0.,1.,2.
*Material, name=Material-35
*Depvar
    200,
*User Material, constants=4
4.,0.,1.,2.
*Material, name=Material-36
*Depvar
    200,
*User Material, constants=4
4.,0.,1.,2.
*Material, name=Material-37
*Depvar
    200,
*User Material, constants=4
4.,0.,1.,2.
*Material, name=Material-38
*Depvar
    200,
*User Material, constants=4
4.,0.,1.,2.
*Material, name=Material-39
*Depvar
    200,
*User Material, constants=4
4.,0.,1.,2.
*Material, name=Material-40
*Depvar
    200,
*User Material, constants=4
4.,0.,1.,2.
*Material, name=Material-41
*Depvar
    200,
*User Material, constants=4
4.,0.,1.,2.
*Material, name=Material-42
*Depvar
    200,
*User Material, constants=4
4.,0.,1.,2.
*Material, name=Material-43
*Depvar
    200,
*User Material, constants=4
4.,0.,1.,2.
*Material, name=Material-44
*Depvar
    200,
*User Material, constants=4
4.,0.,1.,2.
*Material, name=Material-45
*Depvar
    200,
*User Material, constants=4
4.,0.,1.,2.
*Material, name=Material-46
*Depvar
    200,
*User Material, constants=4
4.,0.,1.,2.
*Material, name=Material-47
*Depvar
    200,
*User Material, constants=4
4.,0.,1.,2.
*Material, name=Material-48
*Depvar
    200,
*User Material, constants=4
4.,0.,1.,2.
*Material, name=Material-49
*Depvar
    200,
*User Material, constants=4
4.,0.,1.,2.
*Material, name=Material-50
*Depvar
    200,
*User Material, constants=4
4.,0.,1.,2.
*Material, name=Material-51
*Depvar
    200,
*User Material, constants=4
4.,0.,1.,2.
*Material, name=Material-52
*Depvar
    200,
*User Material, constants=4
4.,0.,1.,2.
*Material, name=Material-53
*Depvar
    200,
*User Material, constants=4
4.,0.,1.,2.
*Material, name=Material-54
*Depvar
    200,
*User Material, constants=4
4.,0.,1.,2.
*Material, name=Material-55
*Depvar
    200,
*User Material, constants=4
4.,0.,1.,2.
*Material, name=Material-56
*Depvar
    200,
*User Material, constants=4
4.,0.,1.,2.
*Material, name=Material-57
*Depvar
    200,
*User Material, constants=4
4.,0.,1.,2.
*Material, name=Material-58
*Depvar
    200,
*User Material, constants=4
4.,0.,1.,2.
*Material, name=Material-59
*Depvar
    200,
*User Material, constants=4
4.,0.,1.,2.
*Material, name=Material-60
*Depvar
    200,
*User Material, constants=4
4.,0.,1.,2.
*Material, name=Material-61
*Depvar
    200,
*User Material, constants=4
4.,0.,1.,2.
*Material, name=Material-62
*Depvar
    200,
*User Material, constants=4
4.,0.,1.,2.
*Material, name=Material-63
*Depvar
    200,
*User Material, constants=4
4.,0.,1.,2.
*Material, name=Material-64
*Depvar
    200,
*User Material, constants=4
4.,0.,1.,2.
*Material, name=Material-65
*Depvar
    200,
*User Material, constants=4
4.,0.,1.,2.
*Material, name=Material-66
*Depvar
    200,
*User Material, constants=4
4.,0.,1.,2.
*Material, name=Material-67
*Depvar
    200,
*User Material, constants=4
4.,0.,1.,2.
*Material, name=Material-68
*Depvar
    200,
*User Material, constants=4
4.,0.,1.,2.
*Material, name=Material-69
*Depvar
    200,
*User Material, constants=4
4.,0.,1.,2.
*Material, name=Material-70
*Depvar
    200,
*User Material, constants=4
4.,0.,1.,2.
*Material, name=Material-71
*Depvar
    200,
*User Material, constants=4
4.,0.,1.,2.
*Material, name=Material-72
*Depvar
    200,
*User Material, constants=4
4.,0.,1.,2.
*Material, name=Material-73
*Depvar
    200,
*User Material, constants=4
4.,0.,1.,2.
*Material, name=Material-74
*Depvar
    200,
*User Material, constants=4
4.,0.,1.,2.
*Material, name=Material-75
*Depvar
    200,
*User Material, constants=4
4.,0.,1.,2.
*Material, name=Material-76
*Depvar
    200,
*User Material, constants=4
4.,0.,1.,2.
*Material, name=Material-77
*Depvar
    200,
*User Material, constants=4
4.,0.,1.,2.
*Material, name=Material-78
*Depvar
    200,
*User Material, constants=4
4.,0.,1.,2.
*Material, name=Material-79
*Depvar
    200,
*User Material, constants=4
4.,0.,1.,2.
*Material, name=Material-80
*Depvar
    200,
*User Material, constants=4
4.,0.,1.,2.
*Material, name=Material-81
*Depvar
    200,
*User Material, constants=4
4.,0.,1.,2.
*Material, name=Material-82
*Depvar
    200,
*User Material, constants=4
4.,0.,1.,2.
*Material, name=Material-83
*Depvar
    200,
*User Material, constants=4
4.,0.,1.,2.
*Material, name=Material-84
*Depvar
    200,
*User Material, constants=4
4.,0.,1.,2.
*Material, name=Material-85
*Depvar
    200,
*User Material, constants=4
4.,0.,1.,2.
*Material, name=Material-86
*Depvar
    200,
*User Material, constants=4
4.,0.,1.,2.
*Material, name=Material-87
*Depvar
    200,
*User Material, constants=4
4.,0.,1.,2.
*Material, name=Material-88
*Depvar
    200,
*User Material, constants=4
4.,0.,1.,2.
*Material, name=Material-89
*Depvar
    200,
*User Material, constants=4
4.,0.,1.,2.
*Material, name=Material-90
*Depvar
    200,
*User Material, constants=4
4.,0.,1.,2.
*Material, name=Material-91
*Depvar
    200,
*User Material, constants=4
4.,0.,1.,2.
*Material, name=Material-92
*Depvar
    200,
*User Material, constants=4
4.,0.,1.,2.
*Material, name=Material-93
*Depvar
    200,
*User Material, constants=4
4.,0.,1.,2.
*Material, name=Material-94
*Depvar
    200,
*User Material, constants=4
4.,0.,1.,2.
*Material, name=Material-95
*Depvar
    200,
*User Material, constants=4
4.,0.,1.,2.
*Material, name=Material-96
*Depvar
    200,
*User Material, constants=4
4.,0.,1.,2.
*Material, name=Material-97
*Depvar
    200,
*User Material, constants=4
4.,0.,1.,2.
*Material, name=Material-98
*Depvar
    200,
*User Material, constants=4
4.,0.,1.,2.
*Material, name=Material-99
*Depvar
    200,
*User Material, constants=4
4.,0.,1.,2.
*Material, name=Material-100
*Depvar
    200,
*User Material, constants=4
4.,0.,1.,2.
*Material, name=Material-101
*Depvar
    200,
*User Material, constants=4
4.,0.,1.,2.
*Material, name=Material-102
*Depvar
    200,
*User Material, constants=4
4.,0.,1.,2.
*Material, name=Material-103
*Depvar
    200,
*User Material, constants=4
4.,0.,1.,2.
*Material, name=Material-104
*Depvar
    200,
*User Material, constants=4
4.,0.,1.,2.
*Material, name=Material-105
*Depvar
    200,
*User Material, constants=4
4.,0.,1.,2.
*Material, name=Material-106
*Depvar
    200,
*User Material, constants=4
4.,0.,1.,2.
*Material, name=Material-107
*Depvar
    200,
*User Material, constants=4
4.,0.,1.,2.
*Material, name=Material-108
*Depvar
    200,
*User Material, constants=4
4.,0.,1.,2.
*Material, name=Material-109
*Depvar
    200,
*User Material, constants=4
4.,0.,1.,2.
*Material, name=Material-110
*Depvar
    200,
*User Material, constants=4
4.,0.,1.,2.
*Material, name=Material-111
*Depvar
    200,
*User Material, constants=4
4.,0.,1.,2.
*Material, name=Material-112
*Depvar
    200,
*User Material, constants=4
4.,0.,1.,2.
*Material, name=Material-113
*Depvar
    200,
*User Material, constants=4
4.,0.,1.,2.
*Material, name=Material-114
*Depvar
    200,
*User Material, constants=4
4.,0.,1.,2.
*Material, name=Material-115
*Depvar
    200,
*User Material, constants=4
4.,0.,1.,2.
*Material, name=Material-116
*Depvar
    200,
*User Material, constants=4
4.,0.,1.,2.
*Material, name=Material-117
*Depvar
    200,
*User Material, constants=4
4.,0.,1.,2.
*Material, name=Material-118
*Depvar
    200,
*User Material, constants=4
4.,0.,1.,2.
*Material, name=Material-119
*Depvar
    200,
*User Material, constants=4
4.,0.,1.,2.
*Material, name=Material-120
*Depvar
    200,
*User Material, constants=4
4.,0.,1.,2.
*Material, name=Material-121
*Depvar
    200,
*User Material, constants=4
4.,0.,1.,2.
*Material, name=Material-122
*Depvar
    200,
*User Material, constants=4
4.,0.,1.,2.
*Material, name=Material-123
*Depvar
    200,
*User Material, constants=4
4.,0.,1.,2.
*Material, name=Material-124
*Depvar
    200,
*User Material, constants=4
4.,0.,1.,2.
*Material, name=Material-125
*Depvar
    200,
*User Material, constants=4
4.,0.,1.,2.
