**** X-DIR 
*Equation 
4 
1184,1, 1 
1105,1,-1 
216,1,-1 
174,1, 1 
*Equation 
4 
497,1, 1 
661,1,-1 
216,1,-1 
174,1, 1 
*Equation 
4 
966,1, 1 
1202,1,-1 
216,1,-1 
174,1, 1 
*Equation 
4 
500,1, 1 
657,1,-1 
216,1,-1 
174,1, 1 
*Equation 
4 
1187,1, 1 
1100,1,-1 
216,1,-1 
174,1, 1 
*Equation 
4 
743,1, 1 
642,1,-1 
216,1,-1 
174,1, 1 
*Equation 
4 
1194,1, 1 
1087,1,-1 
216,1,-1 
174,1, 1 
*Equation 
4 
748,1, 1 
632,1,-1 
216,1,-1 
174,1, 1 
*Equation 
4 
1199,1, 1 
1079,1,-1 
216,1,-1 
174,1, 1 
*Equation 
4 
602,1, 1 
667,1,-1 
216,1,-1 
174,1, 1 
*Equation 
4 
125,1, 1 
184,1,-1 
216,1,-1 
174,1, 1 
*Equation 
4 
501,1, 1 
655,1,-1 
216,1,-1 
174,1, 1 
*Equation 
4 
123,1, 1 
183,1,-1 
216,1,-1 
174,1, 1 
*Equation 
4 
493,1, 1 
660,1,-1 
216,1,-1 
174,1, 1 
*Equation 
4 
81,1, 1 
179,1,-1 
216,1,-1 
174,1, 1 
*Equation 
4 
386,1, 1 
645,1,-1 
216,1,-1 
174,1, 1 
*Equation 
4 
77,1, 1 
175,1,-1 
216,1,-1 
174,1, 1 
*Equation 
4 
380,1, 1 
635,1,-1 
216,1,-1 
174,1, 1 
*Equation 
4 
1049,1, 1 
1175,1,-1 
216,1,-1 
174,1, 1 
*Equation 
4 
601,1, 1 
653,1,-1 
216,1,-1 
174,1, 1 
*Equation 
4 
1190,1, 1 
1096,1,-1 
216,1,-1 
174,1, 1 
*Equation 
4 
491,1, 1 
651,1,-1 
216,1,-1 
174,1, 1 
*Equation 
4 
956,1, 1 
1177,1,-1 
216,1,-1 
174,1, 1 
*Equation 
4 
383,1, 1 
737,1,-1 
216,1,-1 
174,1, 1 
*Equation 
4 
865,1, 1 
1179,1,-1 
216,1,-1 
174,1, 1 
*Equation 
4 
373,1, 1 
738,1,-1 
216,1,-1 
174,1, 1 
*Equation 
4 
860,1, 1 
1181,1,-1 
216,1,-1 
174,1, 1 
*Equation 
4 
603,1, 1 
618,1,-1 
216,1,-1 
174,1, 1 
*Equation 
4 
83,1, 1 
166,1,-1 
216,1,-1 
174,1, 1 
*Equation 
4 
392,1, 1 
656,1,-1 
216,1,-1 
174,1, 1 
*Equation 
4 
84,1, 1 
172,1,-1 
216,1,-1 
174,1, 1 
*Equation 
4 
492,1, 1 
626,1,-1 
216,1,-1 
174,1, 1 
*Equation 
4 
82,1, 1 
170,1,-1 
216,1,-1 
174,1, 1 
*Equation 
4 
385,1, 1 
639,1,-1 
216,1,-1 
174,1, 1 
*Equation 
4 
78,1, 1 
178,1,-1 
216,1,-1 
174,1, 1 
*Equation 
4 
379,1, 1 
649,1,-1 
216,1,-1 
174,1, 1 
*Equation 
4 
1205,1, 1 
1068,1,-1 
216,1,-1 
174,1, 1 
*Equation 
4 
389,1, 1 
613,1,-1 
216,1,-1 
174,1, 1 
*Equation 
4 
873,1, 1 
1173,1,-1 
216,1,-1 
174,1, 1 
*Equation 
4 
391,1, 1 
624,1,-1 
216,1,-1 
174,1, 1 
*Equation 
4 
1204,1, 1 
1073,1,-1 
216,1,-1 
174,1, 1 
*Equation 
4 
751,1, 1 
621,1,-1 
216,1,-1 
174,1, 1 
*Equation 
4 
1197,1, 1 
1083,1,-1 
216,1,-1 
174,1, 1 
*Equation 
4 
747,1, 1 
637,1,-1 
216,1,-1 
174,1, 1 
*Equation 
4 
1191,1, 1 
1091,1,-1 
216,1,-1 
174,1, 1 
*Equation 
4 
719,1, 1 
619,1,-1 
216,1,-1 
174,1, 1 
*Equation 
4 
73,1, 1 
165,1,-1 
216,1,-1 
174,1, 1 
*Equation 
4 
369,1, 1 
735,1,-1 
216,1,-1 
174,1, 1 
*Equation 
4 
75,1, 1 
171,1,-1 
216,1,-1 
174,1, 1 
*Equation 
4 
717,1, 1 
627,1,-1 
216,1,-1 
174,1, 1 
*Equation 
4 
206,1, 1 
169,1,-1 
216,1,-1 
174,1, 1 
*Equation 
4 
712,1, 1 
640,1,-1 
216,1,-1 
174,1, 1 
*Equation 
4 
204,1, 1 
177,1,-1 
216,1,-1 
174,1, 1 
*Equation 
4 
705,1, 1 
650,1,-1 
216,1,-1 
174,1, 1 
*Equation 
4 
1157,1, 1 
1133,1,-1 
216,1,-1 
174,1, 1 
*Equation 
4 
362,1, 1 
695,1,-1 
216,1,-1 
174,1, 1 
*Equation 
4 
854,1, 1 
1183,1,-1 
216,1,-1 
174,1, 1 
*Equation 
4 
365,1, 1 
698,1,-1 
216,1,-1 
174,1, 1 
*Equation 
4 
1154,1, 1 
1136,1,-1 
216,1,-1 
174,1, 1 
*Equation 
4 
713,1, 1 
697,1,-1 
216,1,-1 
174,1, 1 
*Equation 
4 
1150,1, 1 
1138,1,-1 
216,1,-1 
174,1, 1 
*Equation 
4 
706,1, 1 
699,1,-1 
216,1,-1 
174,1, 1 
*Equation 
4 
1145,1, 1 
1140,1,-1 
216,1,-1 
174,1, 1 
*Equation 
4 
718,1, 1 
694,1,-1 
216,1,-1 
174,1, 1 
*Equation 
4 
74,1, 1 
199,1,-1 
216,1,-1 
174,1, 1 
*Equation 
4 
367,1, 1 
701,1,-1 
216,1,-1 
174,1, 1 
*Equation 
4 
76,1, 1 
196,1,-1 
216,1,-1 
174,1, 1 
*Equation 
4 
716,1, 1 
685,1,-1 
216,1,-1 
174,1, 1 
*Equation 
4 
205,1, 1 
194,1,-1 
216,1,-1 
174,1, 1 
*Equation 
4 
711,1, 1 
680,1,-1 
216,1,-1 
174,1, 1 
*Equation 
4 
201,1, 1 
190,1,-1 
216,1,-1 
174,1, 1 
*Equation 
4 
703,1, 1 
675,1,-1 
216,1,-1 
174,1, 1 
*Equation 
4 
1161,1, 1 
1130,1,-1 
216,1,-1 
174,1, 1 
*Equation 
4 
395,1, 1 
691,1,-1 
216,1,-1 
174,1, 1 
*Equation 
4 
878,1, 1 
1142,1,-1 
216,1,-1 
174,1, 1 
*Equation 
4 
393,1, 1 
683,1,-1 
216,1,-1 
174,1, 1 
*Equation 
4 
1164,1, 1 
1125,1,-1 
216,1,-1 
174,1, 1 
*Equation 
4 
727,1, 1 
678,1,-1 
216,1,-1 
174,1, 1 
*Equation 
4 
1167,1, 1 
1121,1,-1 
216,1,-1 
174,1, 1 
*Equation 
4 
730,1, 1 
670,1,-1 
216,1,-1 
174,1, 1 
*Equation 
4 
1170,1, 1 
1117,1,-1 
216,1,-1 
174,1, 1 
**** 
**** Y-DIR 
*Equation 
4 
1184,2, 1 
1105,2,-1 
216,2,-1 
174,2, 1 
*Equation 
4 
497,2, 1 
661,2,-1 
216,2,-1 
174,2, 1 
*Equation 
4 
966,2, 1 
1202,2,-1 
216,2,-1 
174,2, 1 
*Equation 
4 
500,2, 1 
657,2,-1 
216,2,-1 
174,2, 1 
*Equation 
4 
1187,2, 1 
1100,2,-1 
216,2,-1 
174,2, 1 
*Equation 
4 
743,2, 1 
642,2,-1 
216,2,-1 
174,2, 1 
*Equation 
4 
1194,2, 1 
1087,2,-1 
216,2,-1 
174,2, 1 
*Equation 
4 
748,2, 1 
632,2,-1 
216,2,-1 
174,2, 1 
*Equation 
4 
1199,2, 1 
1079,2,-1 
216,2,-1 
174,2, 1 
*Equation 
4 
602,2, 1 
667,2,-1 
216,2,-1 
174,2, 1 
*Equation 
4 
125,2, 1 
184,2,-1 
216,2,-1 
174,2, 1 
*Equation 
4 
501,2, 1 
655,2,-1 
216,2,-1 
174,2, 1 
*Equation 
4 
123,2, 1 
183,2,-1 
216,2,-1 
174,2, 1 
*Equation 
4 
493,2, 1 
660,2,-1 
216,2,-1 
174,2, 1 
*Equation 
4 
81,2, 1 
179,2,-1 
216,2,-1 
174,2, 1 
*Equation 
4 
386,2, 1 
645,2,-1 
216,2,-1 
174,2, 1 
*Equation 
4 
77,2, 1 
175,2,-1 
216,2,-1 
174,2, 1 
*Equation 
4 
380,2, 1 
635,2,-1 
216,2,-1 
174,2, 1 
*Equation 
4 
1049,2, 1 
1175,2,-1 
216,2,-1 
174,2, 1 
*Equation 
4 
601,2, 1 
653,2,-1 
216,2,-1 
174,2, 1 
*Equation 
4 
1190,2, 1 
1096,2,-1 
216,2,-1 
174,2, 1 
*Equation 
4 
491,2, 1 
651,2,-1 
216,2,-1 
174,2, 1 
*Equation 
4 
956,2, 1 
1177,2,-1 
216,2,-1 
174,2, 1 
*Equation 
4 
383,2, 1 
737,2,-1 
216,2,-1 
174,2, 1 
*Equation 
4 
865,2, 1 
1179,2,-1 
216,2,-1 
174,2, 1 
*Equation 
4 
373,2, 1 
738,2,-1 
216,2,-1 
174,2, 1 
*Equation 
4 
860,2, 1 
1181,2,-1 
216,2,-1 
174,2, 1 
*Equation 
4 
603,2, 1 
618,2,-1 
216,2,-1 
174,2, 1 
*Equation 
4 
83,2, 1 
166,2,-1 
216,2,-1 
174,2, 1 
*Equation 
4 
392,2, 1 
656,2,-1 
216,2,-1 
174,2, 1 
*Equation 
4 
84,2, 1 
172,2,-1 
216,2,-1 
174,2, 1 
*Equation 
4 
492,2, 1 
626,2,-1 
216,2,-1 
174,2, 1 
*Equation 
4 
82,2, 1 
170,2,-1 
216,2,-1 
174,2, 1 
*Equation 
4 
385,2, 1 
639,2,-1 
216,2,-1 
174,2, 1 
*Equation 
4 
78,2, 1 
178,2,-1 
216,2,-1 
174,2, 1 
*Equation 
4 
379,2, 1 
649,2,-1 
216,2,-1 
174,2, 1 
*Equation 
4 
1205,2, 1 
1068,2,-1 
216,2,-1 
174,2, 1 
*Equation 
4 
389,2, 1 
613,2,-1 
216,2,-1 
174,2, 1 
*Equation 
4 
873,2, 1 
1173,2,-1 
216,2,-1 
174,2, 1 
*Equation 
4 
391,2, 1 
624,2,-1 
216,2,-1 
174,2, 1 
*Equation 
4 
1204,2, 1 
1073,2,-1 
216,2,-1 
174,2, 1 
*Equation 
4 
751,2, 1 
621,2,-1 
216,2,-1 
174,2, 1 
*Equation 
4 
1197,2, 1 
1083,2,-1 
216,2,-1 
174,2, 1 
*Equation 
4 
747,2, 1 
637,2,-1 
216,2,-1 
174,2, 1 
*Equation 
4 
1191,2, 1 
1091,2,-1 
216,2,-1 
174,2, 1 
*Equation 
4 
719,2, 1 
619,2,-1 
216,2,-1 
174,2, 1 
*Equation 
4 
73,2, 1 
165,2,-1 
216,2,-1 
174,2, 1 
*Equation 
4 
369,2, 1 
735,2,-1 
216,2,-1 
174,2, 1 
*Equation 
4 
75,2, 1 
171,2,-1 
216,2,-1 
174,2, 1 
*Equation 
4 
717,2, 1 
627,2,-1 
216,2,-1 
174,2, 1 
*Equation 
4 
206,2, 1 
169,2,-1 
216,2,-1 
174,2, 1 
*Equation 
4 
712,2, 1 
640,2,-1 
216,2,-1 
174,2, 1 
*Equation 
4 
204,2, 1 
177,2,-1 
216,2,-1 
174,2, 1 
*Equation 
4 
705,2, 1 
650,2,-1 
216,2,-1 
174,2, 1 
*Equation 
4 
1157,2, 1 
1133,2,-1 
216,2,-1 
174,2, 1 
*Equation 
4 
362,2, 1 
695,2,-1 
216,2,-1 
174,2, 1 
*Equation 
4 
854,2, 1 
1183,2,-1 
216,2,-1 
174,2, 1 
*Equation 
4 
365,2, 1 
698,2,-1 
216,2,-1 
174,2, 1 
*Equation 
4 
1154,2, 1 
1136,2,-1 
216,2,-1 
174,2, 1 
*Equation 
4 
713,2, 1 
697,2,-1 
216,2,-1 
174,2, 1 
*Equation 
4 
1150,2, 1 
1138,2,-1 
216,2,-1 
174,2, 1 
*Equation 
4 
706,2, 1 
699,2,-1 
216,2,-1 
174,2, 1 
*Equation 
4 
1145,2, 1 
1140,2,-1 
216,2,-1 
174,2, 1 
*Equation 
4 
718,2, 1 
694,2,-1 
216,2,-1 
174,2, 1 
*Equation 
4 
74,2, 1 
199,2,-1 
216,2,-1 
174,2, 1 
*Equation 
4 
367,2, 1 
701,2,-1 
216,2,-1 
174,2, 1 
*Equation 
4 
76,2, 1 
196,2,-1 
216,2,-1 
174,2, 1 
*Equation 
4 
716,2, 1 
685,2,-1 
216,2,-1 
174,2, 1 
*Equation 
4 
205,2, 1 
194,2,-1 
216,2,-1 
174,2, 1 
*Equation 
4 
711,2, 1 
680,2,-1 
216,2,-1 
174,2, 1 
*Equation 
4 
201,2, 1 
190,2,-1 
216,2,-1 
174,2, 1 
*Equation 
4 
703,2, 1 
675,2,-1 
216,2,-1 
174,2, 1 
*Equation 
4 
1161,2, 1 
1130,2,-1 
216,2,-1 
174,2, 1 
*Equation 
4 
395,2, 1 
691,2,-1 
216,2,-1 
174,2, 1 
*Equation 
4 
878,2, 1 
1142,2,-1 
216,2,-1 
174,2, 1 
*Equation 
4 
393,2, 1 
683,2,-1 
216,2,-1 
174,2, 1 
*Equation 
4 
1164,2, 1 
1125,2,-1 
216,2,-1 
174,2, 1 
*Equation 
4 
727,2, 1 
678,2,-1 
216,2,-1 
174,2, 1 
*Equation 
4 
1167,2, 1 
1121,2,-1 
216,2,-1 
174,2, 1 
*Equation 
4 
730,2, 1 
670,2,-1 
216,2,-1 
174,2, 1 
*Equation 
4 
1170,2, 1 
1117,2,-1 
216,2,-1 
174,2, 1 
**** 
**** Z-DIR 
*Equation 
4 
1184,3, 1 
1105,3,-1 
216,3,-1 
174,3, 1 
*Equation 
4 
497,3, 1 
661,3,-1 
216,3,-1 
174,3, 1 
*Equation 
4 
966,3, 1 
1202,3,-1 
216,3,-1 
174,3, 1 
*Equation 
4 
500,3, 1 
657,3,-1 
216,3,-1 
174,3, 1 
*Equation 
4 
1187,3, 1 
1100,3,-1 
216,3,-1 
174,3, 1 
*Equation 
4 
743,3, 1 
642,3,-1 
216,3,-1 
174,3, 1 
*Equation 
4 
1194,3, 1 
1087,3,-1 
216,3,-1 
174,3, 1 
*Equation 
4 
748,3, 1 
632,3,-1 
216,3,-1 
174,3, 1 
*Equation 
4 
1199,3, 1 
1079,3,-1 
216,3,-1 
174,3, 1 
*Equation 
4 
602,3, 1 
667,3,-1 
216,3,-1 
174,3, 1 
*Equation 
4 
125,3, 1 
184,3,-1 
216,3,-1 
174,3, 1 
*Equation 
4 
501,3, 1 
655,3,-1 
216,3,-1 
174,3, 1 
*Equation 
4 
123,3, 1 
183,3,-1 
216,3,-1 
174,3, 1 
*Equation 
4 
493,3, 1 
660,3,-1 
216,3,-1 
174,3, 1 
*Equation 
4 
81,3, 1 
179,3,-1 
216,3,-1 
174,3, 1 
*Equation 
4 
386,3, 1 
645,3,-1 
216,3,-1 
174,3, 1 
*Equation 
4 
77,3, 1 
175,3,-1 
216,3,-1 
174,3, 1 
*Equation 
4 
380,3, 1 
635,3,-1 
216,3,-1 
174,3, 1 
*Equation 
4 
1049,3, 1 
1175,3,-1 
216,3,-1 
174,3, 1 
*Equation 
4 
601,3, 1 
653,3,-1 
216,3,-1 
174,3, 1 
*Equation 
4 
1190,3, 1 
1096,3,-1 
216,3,-1 
174,3, 1 
*Equation 
4 
491,3, 1 
651,3,-1 
216,3,-1 
174,3, 1 
*Equation 
4 
956,3, 1 
1177,3,-1 
216,3,-1 
174,3, 1 
*Equation 
4 
383,3, 1 
737,3,-1 
216,3,-1 
174,3, 1 
*Equation 
4 
865,3, 1 
1179,3,-1 
216,3,-1 
174,3, 1 
*Equation 
4 
373,3, 1 
738,3,-1 
216,3,-1 
174,3, 1 
*Equation 
4 
860,3, 1 
1181,3,-1 
216,3,-1 
174,3, 1 
*Equation 
4 
603,3, 1 
618,3,-1 
216,3,-1 
174,3, 1 
*Equation 
4 
83,3, 1 
166,3,-1 
216,3,-1 
174,3, 1 
*Equation 
4 
392,3, 1 
656,3,-1 
216,3,-1 
174,3, 1 
*Equation 
4 
84,3, 1 
172,3,-1 
216,3,-1 
174,3, 1 
*Equation 
4 
492,3, 1 
626,3,-1 
216,3,-1 
174,3, 1 
*Equation 
4 
82,3, 1 
170,3,-1 
216,3,-1 
174,3, 1 
*Equation 
4 
385,3, 1 
639,3,-1 
216,3,-1 
174,3, 1 
*Equation 
4 
78,3, 1 
178,3,-1 
216,3,-1 
174,3, 1 
*Equation 
4 
379,3, 1 
649,3,-1 
216,3,-1 
174,3, 1 
*Equation 
4 
1205,3, 1 
1068,3,-1 
216,3,-1 
174,3, 1 
*Equation 
4 
389,3, 1 
613,3,-1 
216,3,-1 
174,3, 1 
*Equation 
4 
873,3, 1 
1173,3,-1 
216,3,-1 
174,3, 1 
*Equation 
4 
391,3, 1 
624,3,-1 
216,3,-1 
174,3, 1 
*Equation 
4 
1204,3, 1 
1073,3,-1 
216,3,-1 
174,3, 1 
*Equation 
4 
751,3, 1 
621,3,-1 
216,3,-1 
174,3, 1 
*Equation 
4 
1197,3, 1 
1083,3,-1 
216,3,-1 
174,3, 1 
*Equation 
4 
747,3, 1 
637,3,-1 
216,3,-1 
174,3, 1 
*Equation 
4 
1191,3, 1 
1091,3,-1 
216,3,-1 
174,3, 1 
*Equation 
4 
719,3, 1 
619,3,-1 
216,3,-1 
174,3, 1 
*Equation 
4 
73,3, 1 
165,3,-1 
216,3,-1 
174,3, 1 
*Equation 
4 
369,3, 1 
735,3,-1 
216,3,-1 
174,3, 1 
*Equation 
4 
75,3, 1 
171,3,-1 
216,3,-1 
174,3, 1 
*Equation 
4 
717,3, 1 
627,3,-1 
216,3,-1 
174,3, 1 
*Equation 
4 
206,3, 1 
169,3,-1 
216,3,-1 
174,3, 1 
*Equation 
4 
712,3, 1 
640,3,-1 
216,3,-1 
174,3, 1 
*Equation 
4 
204,3, 1 
177,3,-1 
216,3,-1 
174,3, 1 
*Equation 
4 
705,3, 1 
650,3,-1 
216,3,-1 
174,3, 1 
*Equation 
4 
1157,3, 1 
1133,3,-1 
216,3,-1 
174,3, 1 
*Equation 
4 
362,3, 1 
695,3,-1 
216,3,-1 
174,3, 1 
*Equation 
4 
854,3, 1 
1183,3,-1 
216,3,-1 
174,3, 1 
*Equation 
4 
365,3, 1 
698,3,-1 
216,3,-1 
174,3, 1 
*Equation 
4 
1154,3, 1 
1136,3,-1 
216,3,-1 
174,3, 1 
*Equation 
4 
713,3, 1 
697,3,-1 
216,3,-1 
174,3, 1 
*Equation 
4 
1150,3, 1 
1138,3,-1 
216,3,-1 
174,3, 1 
*Equation 
4 
706,3, 1 
699,3,-1 
216,3,-1 
174,3, 1 
*Equation 
4 
1145,3, 1 
1140,3,-1 
216,3,-1 
174,3, 1 
*Equation 
4 
718,3, 1 
694,3,-1 
216,3,-1 
174,3, 1 
*Equation 
4 
74,3, 1 
199,3,-1 
216,3,-1 
174,3, 1 
*Equation 
4 
367,3, 1 
701,3,-1 
216,3,-1 
174,3, 1 
*Equation 
4 
76,3, 1 
196,3,-1 
216,3,-1 
174,3, 1 
*Equation 
4 
716,3, 1 
685,3,-1 
216,3,-1 
174,3, 1 
*Equation 
4 
205,3, 1 
194,3,-1 
216,3,-1 
174,3, 1 
*Equation 
4 
711,3, 1 
680,3,-1 
216,3,-1 
174,3, 1 
*Equation 
4 
201,3, 1 
190,3,-1 
216,3,-1 
174,3, 1 
*Equation 
4 
703,3, 1 
675,3,-1 
216,3,-1 
174,3, 1 
*Equation 
4 
1161,3, 1 
1130,3,-1 
216,3,-1 
174,3, 1 
*Equation 
4 
395,3, 1 
691,3,-1 
216,3,-1 
174,3, 1 
*Equation 
4 
878,3, 1 
1142,3,-1 
216,3,-1 
174,3, 1 
*Equation 
4 
393,3, 1 
683,3,-1 
216,3,-1 
174,3, 1 
*Equation 
4 
1164,3, 1 
1125,3,-1 
216,3,-1 
174,3, 1 
*Equation 
4 
727,3, 1 
678,3,-1 
216,3,-1 
174,3, 1 
*Equation 
4 
1167,3, 1 
1121,3,-1 
216,3,-1 
174,3, 1 
*Equation 
4 
730,3, 1 
670,3,-1 
216,3,-1 
174,3, 1 
*Equation 
4 
1170,3, 1 
1117,3,-1 
216,3,-1 
174,3, 1 
