** ----------------------------------------------------------------
** BOUNDARY CONDITIONS
**
*Boundary
V1,1
V1,2
V1,3
V2,2
H1,1
V4,3
**
**-------------------------------------------------------------------
**
** STEP: Loading
**
*Step, name=Loading, nlgeom=YES, inc=500000, unsymm=YES, solver=ITERATIVE
*Static
1, 100, 1e-6, 1
**
**
*CONTROLS, PARAMETER=TIME INCREMENTATION
35, 50, 9, 50, 28, 5, 12, 45
**
*CONTROLS, PARAMETERS=LINE SEARCH
10
**Originally that was SOLVER CONTROL
*SOLVER CONTROL
1e-5,200,
**
** BOUNDARY CONDITIONS
**
** LOADS
**
** Name: Load Type: Stress BC
*Cload
V2,1, 7.3740100938303845
V4,2, -22.472283992098337
H1,3, -22.61314360604798
H1,2, 1.0488251787168503
V2,3, -28.71486642358601
V4,1, -8.718638779514269
**
** OUTPUT REQUESTS
**
**
** FIELD OUTPUT: F-Output-1
**
*Output, field
*Node Output
U,RF,CF,COORD
*Element Output, directions=YES
S,LE
SDV156,SDV157,SDV158
SDV159,SDV160,SDV161
** HISTORY OUTPUT: H-Output-1
**
**Output, history, variable=PRESELECT
*End Step
